\ Model master_model
\ LP format - for model browsing. Use MPS format to capture full model detail.
Minimize
  _Theta
Subject To
 R0: _f[105,Do_nothing] + _f[105,R1] + _f[105,R2] + _f[105,R3] = 1
 R1: _f[19,Do_nothing] + _f[19,R1] + _f[19,R2] + _f[19,R3] = 1
 R2: _f[150,Do_nothing] + _f[150,R1] + _f[150,R2] + _f[150,R3] = 1
 R3: _f[61,Do_nothing] + _f[61,R1] + _f[61,R2] + _f[61,R3] = 1
 R4: _f[109,Do_nothing] + _f[109,R1] + _f[109,R2] + _f[109,R3] = 1
 R5: _f[126,Do_nothing] + _f[126,R1] + _f[126,R2] + _f[126,R3] = 1
 R6: _f[137,Do_nothing] + _f[137,R1] + _f[137,R2] + _f[137,R3] = 1
 R7: _f[31,Do_nothing] + _f[31,R1] + _f[31,R2] + _f[31,R3] = 1
 R8: _f[1,Do_nothing] + _f[1,R1] + _f[1,R2] + _f[1,R3] = 1
 R9: _f[51,Do_nothing] + _f[51,R1] + _f[51,R2] + _f[51,R3] = 1
 R10: _f[39,Do_nothing] + _f[39,R1] + _f[39,R2] + _f[39,R3] = 1
 R11: _f[81,Do_nothing] + _f[81,R1] + _f[81,R2] + _f[81,R3] = 1
 R12: _f[147,Do_nothing] + _f[147,R1] + _f[147,R2] + _f[147,R3] = 1
 R13: _f[44,Do_nothing] + _f[44,R1] + _f[44,R2] + _f[44,R3] = 1
 R14: _f[97,Do_nothing] + _f[97,R1] + _f[97,R2] + _f[97,R3] = 1
 R15: _f[71,Do_nothing] + _f[71,R1] + _f[71,R2] + _f[71,R3] = 1
 R16: _f[134,Do_nothing] + _f[134,R1] + _f[134,R2] + _f[134,R3] = 1
 R17: _f[11,Do_nothing] + _f[11,R1] + _f[11,R2] + _f[11,R3] = 1
 R18: _f[69,Do_nothing] + _f[69,R1] + _f[69,R2] + _f[69,R3] = 1
 R19: _f[12,Do_nothing] + _f[12,R1] + _f[12,R2] + _f[12,R3] = 1
 R20: _f[87,Do_nothing] + _f[87,R1] + _f[87,R2] + _f[87,R3] = 1
 R21: _f[123,Do_nothing] + _f[123,R1] + _f[123,R2] + _f[123,R3] = 1
 R22: _f[148,Do_nothing] + _f[148,R1] + _f[148,R2] + _f[148,R3] = 1
 R23: _f[41,Do_nothing] + _f[41,R1] + _f[41,R2] + _f[41,R3] = 1
 R24: _f[106,Do_nothing] + _f[106,R1] + _f[106,R2] + _f[106,R3] = 1
 R25: _f[34,Do_nothing] + _f[34,R1] + _f[34,R2] + _f[34,R3] = 1
 R26: _f[114,Do_nothing] + _f[114,R1] + _f[114,R2] + _f[114,R3] = 1
 R27: _f[47,Do_nothing] + _f[47,R1] + _f[47,R2] + _f[47,R3] = 1
 R28: _f[75,Do_nothing] + _f[75,R1] + _f[75,R2] + _f[75,R3] = 1
 R29: _f[119,Do_nothing] + _f[119,R1] + _f[119,R2] + _f[119,R3] = 1
 R30: _f[28,Do_nothing] + _f[28,R1] + _f[28,R2] + _f[28,R3] = 1
 R31: _f[93,Do_nothing] + _f[93,R1] + _f[93,R2] + _f[93,R3] = 1
 R32: _f[59,Do_nothing] + _f[59,R1] + _f[59,R2] + _f[59,R3] = 1
 R33: _f[90,Do_nothing] + _f[90,R1] + _f[90,R2] + _f[90,R3] = 1
 R34: _f[95,Do_nothing] + _f[95,R1] + _f[95,R2] + _f[95,R3] = 1
 R35: _f[3,Do_nothing] + _f[3,R1] + _f[3,R2] + _f[3,R3] = 1
 R36: _f[82,Do_nothing] + _f[82,R1] + _f[82,R2] + _f[82,R3] = 1
 R37: _f[72,Do_nothing] + _f[72,R1] + _f[72,R2] + _f[72,R3] = 1
 R38: _f[46,Do_nothing] + _f[46,R1] + _f[46,R2] + _f[46,R3] = 1
 R39: _f[33,Do_nothing] + _f[33,R1] + _f[33,R2] + _f[33,R3] = 1
 R40: _f[116,Do_nothing] + _f[116,R1] + _f[116,R2] + _f[116,R3] = 1
 R41: _f[13,Do_nothing] + _f[13,R1] + _f[13,R2] + _f[13,R3] = 1
 R42: _f[104,Do_nothing] + _f[104,R1] + _f[104,R2] + _f[104,R3] = 1
 R43: _f[130,Do_nothing] + _f[130,R1] + _f[130,R2] + _f[130,R3] = 1
 R44: _f[139,Do_nothing] + _f[139,R1] + _f[139,R2] + _f[139,R3] = 1
 R45: _f[36,Do_nothing] + _f[36,R1] + _f[36,R2] + _f[36,R3] = 1
 R46: _f[25,Do_nothing] + _f[25,R1] + _f[25,R2] + _f[25,R3] = 1
 R47: _f[64,Do_nothing] + _f[64,R1] + _f[64,R2] + _f[64,R3] = 1
 R48: _f[110,Do_nothing] + _f[110,R1] + _f[110,R2] + _f[110,R3] = 1
 R49: _f[10,Do_nothing] + _f[10,R1] + _f[10,R2] + _f[10,R3] = 1
 R50: _f[7,Do_nothing] + _f[7,R1] + _f[7,R2] + _f[7,R3] = 1
 R51: _f[80,Do_nothing] + _f[80,R1] + _f[80,R2] + _f[80,R3] = 1
 R52: _f[124,Do_nothing] + _f[124,R1] + _f[124,R2] + _f[124,R3] = 1
 R53: _f[127,Do_nothing] + _f[127,R1] + _f[127,R2] + _f[127,R3] = 1
 R54: _f[40,Do_nothing] + _f[40,R1] + _f[40,R2] + _f[40,R3] = 1
 R55: _f[103,Do_nothing] + _f[103,R1] + _f[103,R2] + _f[103,R3] = 1
 R56: _f[118,Do_nothing] + _f[118,R1] + _f[118,R2] + _f[118,R3] = 1
 R57: _f[136,Do_nothing] + _f[136,R1] + _f[136,R2] + _f[136,R3] = 1
 R58: _f[65,Do_nothing] + _f[65,R1] + _f[65,R2] + _f[65,R3] = 1
 R59: _f[62,Do_nothing] + _f[62,R1] + _f[62,R2] + _f[62,R3] = 1
 R60: _f[125,Do_nothing] + _f[125,R1] + _f[125,R2] + _f[125,R3] = 1
 R61: _f[60,Do_nothing] + _f[60,R1] + _f[60,R2] + _f[60,R3] = 1
 R62: _f[17,Do_nothing] + _f[17,R1] + _f[17,R2] + _f[17,R3] = 1
 R63: _f[53,Do_nothing] + _f[53,R1] + _f[53,R2] + _f[53,R3] = 1
 R64: _f[131,Do_nothing] + _f[131,R1] + _f[131,R2] + _f[131,R3] = 1
 R65: _f[55,Do_nothing] + _f[55,R1] + _f[55,R2] + _f[55,R3] = 1
 R66: _f[58,Do_nothing] + _f[58,R1] + _f[58,R2] + _f[58,R3] = 1
 R67: _f[107,Do_nothing] + _f[107,R1] + _f[107,R2] + _f[107,R3] = 1
 R68: _f[4,Do_nothing] + _f[4,R1] + _f[4,R2] + _f[4,R3] = 1
 R69: _f[149,Do_nothing] + _f[149,R1] + _f[149,R2] + _f[149,R3] = 1
 R70: _f[63,Do_nothing] + _f[63,R1] + _f[63,R2] + _f[63,R3] = 1
 R71: _f[57,Do_nothing] + _f[57,R1] + _f[57,R2] + _f[57,R3] = 1
 R72: _f[23,Do_nothing] + _f[23,R1] + _f[23,R2] + _f[23,R3] = 1
 R73: _f[117,Do_nothing] + _f[117,R1] + _f[117,R2] + _f[117,R3] = 1
 R74: _f[108,Do_nothing] + _f[108,R1] + _f[108,R2] + _f[108,R3] = 1
 R75: _f[138,Do_nothing] + _f[138,R1] + _f[138,R2] + _f[138,R3] = 1
 R76: _f[6,Do_nothing] + _f[6,R1] + _f[6,R2] + _f[6,R3] = 1
 R77: _f[86,Do_nothing] + _f[86,R1] + _f[86,R2] + _f[86,R3] = 1
 R78: _f[121,Do_nothing] + _f[121,R1] + _f[121,R2] + _f[121,R3] = 1
 R79: _f[145,Do_nothing] + _f[145,R1] + _f[145,R2] + _f[145,R3] = 1
 R80: _f[99,Do_nothing] + _f[99,R1] + _f[99,R2] + _f[99,R3] = 1
 R81: _f[21,Do_nothing] + _f[21,R1] + _f[21,R2] + _f[21,R3] = 1
 R82: _f[42,Do_nothing] + _f[42,R1] + _f[42,R2] + _f[42,R3] = 1
 R83: _f[98,Do_nothing] + _f[98,R1] + _f[98,R2] + _f[98,R3] = 1
 R84: _f[100,Do_nothing] + _f[100,R1] + _f[100,R2] + _f[100,R3] = 1
 R85: _f[76,Do_nothing] + _f[76,R1] + _f[76,R2] + _f[76,R3] = 1
 R86: _f[102,Do_nothing] + _f[102,R1] + _f[102,R2] + _f[102,R3] = 1
 R87: _f[141,Do_nothing] + _f[141,R1] + _f[141,R2] + _f[141,R3] = 1
 R88: _f[146,Do_nothing] + _f[146,R1] + _f[146,R2] + _f[146,R3] = 1
 R89: _f[94,Do_nothing] + _f[94,R1] + _f[94,R2] + _f[94,R3] = 1
 R90: _f[79,Do_nothing] + _f[79,R1] + _f[79,R2] + _f[79,R3] = 1
 R91: _f[2,Do_nothing] + _f[2,R1] + _f[2,R2] + _f[2,R3] = 1
 R92: _f[140,Do_nothing] + _f[140,R1] + _f[140,R2] + _f[140,R3] = 1
 R93: _f[77,Do_nothing] + _f[77,R1] + _f[77,R2] + _f[77,R3] = 1
 R94: _f[24,Do_nothing] + _f[24,R1] + _f[24,R2] + _f[24,R3] = 1
 R95: _f[66,Do_nothing] + _f[66,R1] + _f[66,R2] + _f[66,R3] = 1
 R96: _f[8,Do_nothing] + _f[8,R1] + _f[8,R2] + _f[8,R3] = 1
 R97: _f[43,Do_nothing] + _f[43,R1] + _f[43,R2] + _f[43,R3] = 1
 R98: _f[74,Do_nothing] + _f[74,R1] + _f[74,R2] + _f[74,R3] = 1
 R99: _f[35,Do_nothing] + _f[35,R1] + _f[35,R2] + _f[35,R3] = 1
 R100: _f[26,Do_nothing] + _f[26,R1] + _f[26,R2] + _f[26,R3] = 1
 R101: _f[15,Do_nothing] + _f[15,R1] + _f[15,R2] + _f[15,R3] = 1
 R102: _f[56,Do_nothing] + _f[56,R1] + _f[56,R2] + _f[56,R3] = 1
 R103: _f[88,Do_nothing] + _f[88,R1] + _f[88,R2] + _f[88,R3] = 1
 R104: _f[142,Do_nothing] + _f[142,R1] + _f[142,R2] + _f[142,R3] = 1
 R105: _f[113,Do_nothing] + _f[113,R1] + _f[113,R2] + _f[113,R3] = 1
 R106: _f[52,Do_nothing] + _f[52,R1] + _f[52,R2] + _f[52,R3] = 1
 R107: _f[37,Do_nothing] + _f[37,R1] + _f[37,R2] + _f[37,R3] = 1
 R108: _f[78,Do_nothing] + _f[78,R1] + _f[78,R2] + _f[78,R3] = 1
 R109: _f[132,Do_nothing] + _f[132,R1] + _f[132,R2] + _f[132,R3] = 1
 R110: _f[50,Do_nothing] + _f[50,R1] + _f[50,R2] + _f[50,R3] = 1
 R111: _f[144,Do_nothing] + _f[144,R1] + _f[144,R2] + _f[144,R3] = 1
 R112: _f[96,Do_nothing] + _f[96,R1] + _f[96,R2] + _f[96,R3] = 1
 R113: _f[120,Do_nothing] + _f[120,R1] + _f[120,R2] + _f[120,R3] = 1
 R114: _f[22,Do_nothing] + _f[22,R1] + _f[22,R2] + _f[22,R3] = 1
 R115: _f[84,Do_nothing] + _f[84,R1] + _f[84,R2] + _f[84,R3] = 1
 R116: _f[85,Do_nothing] + _f[85,R1] + _f[85,R2] + _f[85,R3] = 1
 R117: _f[16,Do_nothing] + _f[16,R1] + _f[16,R2] + _f[16,R3] = 1
 R118: _f[20,Do_nothing] + _f[20,R1] + _f[20,R2] + _f[20,R3] = 1
 R119: _f[128,Do_nothing] + _f[128,R1] + _f[128,R2] + _f[128,R3] = 1
 R120: _f[54,Do_nothing] + _f[54,R1] + _f[54,R2] + _f[54,R3] = 1
 R121: _f[29,Do_nothing] + _f[29,R1] + _f[29,R2] + _f[29,R3] = 1
 R122: _f[14,Do_nothing] + _f[14,R1] + _f[14,R2] + _f[14,R3] = 1
 R123: _f[38,Do_nothing] + _f[38,R1] + _f[38,R2] + _f[38,R3] = 1
 R124: _f[70,Do_nothing] + _f[70,R1] + _f[70,R2] + _f[70,R3] = 1
 R125: _f[143,Do_nothing] + _f[143,R1] + _f[143,R2] + _f[143,R3] = 1
 R126: _f[48,Do_nothing] + _f[48,R1] + _f[48,R2] + _f[48,R3] = 1
 R127: _f[112,Do_nothing] + _f[112,R1] + _f[112,R2] + _f[112,R3] = 1
 R128: _f[89,Do_nothing] + _f[89,R1] + _f[89,R2] + _f[89,R3] = 1
 R129: _f[129,Do_nothing] + _f[129,R1] + _f[129,R2] + _f[129,R3] = 1
 R130: _f[68,Do_nothing] + _f[68,R1] + _f[68,R2] + _f[68,R3] = 1
 R131: _f[115,Do_nothing] + _f[115,R1] + _f[115,R2] + _f[115,R3] = 1
 R132: _f[111,Do_nothing] + _f[111,R1] + _f[111,R2] + _f[111,R3] = 1
 R133: _f[9,Do_nothing] + _f[9,R1] + _f[9,R2] + _f[9,R3] = 1
 R134: _f[30,Do_nothing] + _f[30,R1] + _f[30,R2] + _f[30,R3] = 1
 R135: _f[5,Do_nothing] + _f[5,R1] + _f[5,R2] + _f[5,R3] = 1
 R136: _f[67,Do_nothing] + _f[67,R1] + _f[67,R2] + _f[67,R3] = 1
 R137: _f[92,Do_nothing] + _f[92,R1] + _f[92,R2] + _f[92,R3] = 1
 R138: _f[122,Do_nothing] + _f[122,R1] + _f[122,R2] + _f[122,R3] = 1
 R139: _f[133,Do_nothing] + _f[133,R1] + _f[133,R2] + _f[133,R3] = 1
 R140: _f[135,Do_nothing] + _f[135,R1] + _f[135,R2] + _f[135,R3] = 1
 R141: _f[73,Do_nothing] + _f[73,R1] + _f[73,R2] + _f[73,R3] = 1
 R142: _f[27,Do_nothing] + _f[27,R1] + _f[27,R2] + _f[27,R3] = 1
 R143: _f[32,Do_nothing] + _f[32,R1] + _f[32,R2] + _f[32,R3] = 1
 R144: _f[18,Do_nothing] + _f[18,R1] + _f[18,R2] + _f[18,R3] = 1
 R145: _f[45,Do_nothing] + _f[45,R1] + _f[45,R2] + _f[45,R3] = 1
 R146: _f[91,Do_nothing] + _f[91,R1] + _f[91,R2] + _f[91,R3] = 1
 R147: _f[101,Do_nothing] + _f[101,R1] + _f[101,R2] + _f[101,R3] = 1
 R148: _f[49,Do_nothing] + _f[49,R1] + _f[49,R2] + _f[49,R3] = 1
 R149: _f[83,Do_nothing] + _f[83,R1] + _f[83,R2] + _f[83,R3] = 1
 R150: _Theta >= 0
 R151: 12783 _f[105,R1] + 16065 _f[105,R2] + 28837 _f[105,R3]
   + 119355 _f[19,R1] + 150005 _f[19,R2] + 269255 _f[19,R3]
   + 52807 _f[150,R1] + 66368 _f[150,R2] + 119127 _f[150,R3]
   + 77012 _f[61,R1] + 96789 _f[61,R2] + 173733 _f[61,R3] + 4530 _f[109,R1]
   + 5693 _f[109,R2] + 10219 _f[109,R3] + 33367 _f[126,R1]
   + 41937 _f[126,R2] + 75275 _f[126,R3] + 19605 _f[137,R1]
   + 24639 _f[137,R2] + 44226 _f[137,R3] + 83838 _f[31,R1]
   + 105366 _f[31,R2] + 189129 _f[31,R3] + 78072 _f[1,R1] + 98122 _f[1,R2]
   + 176124 _f[1,R3] + 59472 _f[51,R1] + 74746 _f[51,R2] + 134166 _f[51,R3]
   + 218782 _f[39,R1] + 274961 _f[39,R2] + 493551 _f[39,R3]
   + 141757 _f[81,R1] + 178158 _f[81,R2] + 319790 _f[81,R3]
   + 42729 _f[147,R1] + 53701 _f[147,R2] + 96395 _f[147,R3]
   + 87553 _f[44,R1] + 110037 _f[44,R2] + 197517 _f[44,R3]
   + 125910 _f[97,R1] + 158240 _f[97,R2] + 284041 _f[97,R3]
   + 98829 _f[71,R1] + 124207 _f[71,R2] + 222949 _f[71,R3]
   + 43363 _f[134,R1] + 54501 _f[134,R2] + 97827 _f[134,R3]
   + 118033 _f[11,R1] + 148342 _f[11,R2] + 266266 _f[11,R3]
   + 234977 _f[69,R1] + 304934 _f[69,R2] + 547351 _f[69,R3]
   + 62789 _f[12,R1] + 78911 _f[12,R2] + 141647 _f[12,R3] + 64516 _f[87,R1]
   + 81081 _f[87,R2] + 145540 _f[87,R3] + 48511 _f[123,R1]
   + 60967 _f[123,R2] + 109435 _f[123,R3] + 58602 _f[148,R1]
   + 73648 _f[148,R2] + 132194 _f[148,R3] + 167956 _f[41,R1]
   + 211084 _f[41,R2] + 378891 _f[41,R3] + 136344 _f[106,R1]
   + 171354 _f[106,R2] + 307578 _f[106,R3] + 51241 _f[34,R1]
   + 64400 _f[34,R2] + 115596 _f[34,R3] + 30518 _f[114,R1]
   + 38354 _f[114,R2] + 68844 _f[114,R3] + 51926 _f[47,R1]
   + 65263 _f[47,R2] + 117143 _f[47,R3] + 83720 _f[75,R1]
   + 105218 _f[75,R2] + 188867 _f[75,R3] + 62388 _f[119,R1]
   + 78411 _f[119,R2] + 140748 _f[119,R3] + 89269 _f[28,R1]
   + 112195 _f[28,R2] + 201388 _f[28,R3] + 9047 _f[93,R1] + 11369 _f[93,R2]
   + 20408 _f[93,R3] + 34888 _f[59,R1] + 43846 _f[59,R2] + 78703 _f[59,R3]
   + 112492 _f[90,R1] + 141377 _f[90,R2] + 253769 _f[90,R3]
   + 124502 _f[95,R1] + 156473 _f[95,R2] + 280867 _f[95,R3]
   + 59082 _f[3,R1] + 74256 _f[3,R2] + 133286 _f[3,R3] + 66697 _f[82,R1]
   + 83825 _f[82,R2] + 150463 _f[82,R3] + 67226 _f[72,R1] + 84491 _f[72,R2]
   + 151658 _f[72,R3] + 106163 _f[46,R1] + 133423 _f[46,R2]
   + 239491 _f[46,R3] + 157590 _f[33,R1] + 198060 _f[33,R2]
   + 355513 _f[33,R3] + 56019 _f[116,R1] + 70403 _f[116,R2]
   + 126375 _f[116,R3] + 80416 _f[13,R1] + 101066 _f[13,R2]
   + 181408 _f[13,R3] + 149800 _f[104,R1] + 188268 _f[104,R2]
   + 337936 _f[104,R3] + 128105 _f[130,R1] + 161001 _f[130,R2]
   + 288996 _f[130,R3] + 102323 _f[139,R1] + 128599 _f[139,R2]
   + 230830 _f[139,R3] + 225577 _f[36,R1] + 283506 _f[36,R2]
   + 508886 _f[36,R3] + 76086 _f[25,R1] + 95624 _f[25,R2]
   + 171642 _f[25,R3] + 55674 _f[64,R1] + 69969 _f[64,R2]
   + 125591 _f[64,R3] + 135857 _f[110,R1] + 170740 _f[110,R2]
   + 306476 _f[110,R3] + 100317 _f[10,R1] + 126077 _f[10,R2]
   + 226309 _f[10,R3] + 107163 _f[7,R1] + 134681 _f[7,R2] + 241751 _f[7,R3]
   + 565884 _f[80,R1] + 711200 _f[80,R2] + 1.276589e+06 _f[80,R3]
   + 76304 _f[124,R1] + 95898 _f[124,R2] + 172133 _f[124,R3]
   + 75815 _f[127,R1] + 95286 _f[127,R2] + 171036 _f[127,R3]
   + 81174 _f[40,R1] + 102018 _f[40,R2] + 183121 _f[40,R3]
   + 84815 _f[103,R1] + 106593 _f[103,R2] + 191334 _f[103,R3]
   + 110402 _f[118,R1] + 138749 _f[118,R2] + 249057 _f[118,R3]
   + 84842 _f[136,R1] + 106625 _f[136,R2] + 191391 _f[136,R3]
   + 32262 _f[65,R1] + 40547 _f[65,R2] + 72782 _f[65,R3] + 39060 _f[62,R1]
   + 49089 _f[62,R2] + 88115 _f[62,R3] + 14599 _f[125,R1]
   + 18348 _f[125,R2] + 32935 _f[125,R3] + 21608 _f[60,R1]
   + 27157 _f[60,R2] + 48746 _f[60,R3] + 88993 _f[17,R1] + 111849 _f[17,R2]
   + 200765 _f[17,R3] + 51639 _f[53,R1] + 64896 _f[53,R2]
   + 116486 _f[53,R3] + 39506 _f[131,R1] + 49652 _f[131,R2]
   + 89123 _f[131,R3] + 15197 _f[55,R1] + 19099 _f[55,R2] + 34283 _f[55,R3]
   + 132683 _f[58,R1] + 166753 _f[58,R2] + 299316 _f[58,R3]
   + 110878 _f[107,R1] + 139353 _f[107,R2] + 250134 _f[107,R3]
   + 64337 _f[4,R1] + 80857 _f[4,R2] + 145140 _f[4,R3] + 36782 _f[149,R1]
   + 46226 _f[149,R2] + 82973 _f[149,R3] + 26752 _f[63,R1]
   + 33620 _f[63,R2] + 60346 _f[63,R3] + 81912 _f[57,R1] + 102946 _f[57,R2]
   + 184785 _f[57,R3] + 20113 _f[23,R1] + 25278 _f[23,R2] + 45373 _f[23,R3]
   + 31860 _f[117,R1] + 40041 _f[117,R2] + 71873 _f[117,R3]
   + 20551 _f[108,R1] + 25828 _f[108,R2] + 46361 _f[108,R3]
   + 96932 _f[138,R1] + 121822 _f[138,R2] + 218669 _f[138,R3]
   + 86660 _f[6,R1] + 108913 _f[6,R2] + 195495 _f[6,R3] + 54229 _f[86,R1]
   + 68153 _f[86,R2] + 122333 _f[86,R3] + 228689 _f[121,R1]
   + 302398 _f[121,R2] + 542797 _f[121,R3] + 73723 _f[145,R1]
   + 92655 _f[145,R2] + 166313 _f[145,R3] + 42139 _f[99,R1]
   + 52961 _f[99,R2] + 95064 _f[99,R3] + 79097 _f[21,R1] + 99407 _f[21,R2]
   + 178431 _f[21,R3] + 44546 _f[42,R1] + 55984 _f[42,R2]
   + 100491 _f[42,R3] + 73070 _f[98,R1] + 91835 _f[98,R2]
   + 164838 _f[98,R3] + 46415 _f[100,R1] + 58335 _f[100,R2]
   + 104709 _f[100,R3] + 274727 _f[76,R1] + 345277 _f[76,R2]
   + 619764 _f[76,R3] + 76890 _f[102,R1] + 96637 _f[102,R2]
   + 173460 _f[102,R3] + 20783 _f[141,R1] + 26119 _f[141,R2]
   + 46884 _f[141,R3] + 97308 _f[146,R1] + 122296 _f[146,R2]
   + 219520 _f[146,R3] + 72592 _f[94,R1] + 91237 _f[94,R2]
   + 163768 _f[94,R3] + 70968 _f[79,R1] + 89192 _f[79,R2]
   + 160099 _f[79,R3] + 250389 _f[2,R1] + 314685 _f[2,R2] + 564856 _f[2,R3]
   + 335071 _f[140,R1] + 421116 _f[140,R2] + 755894 _f[140,R3]
   + 76017 _f[77,R1] + 95536 _f[77,R2] + 171486 _f[77,R3]
   + 120732 _f[24,R1] + 151737 _f[24,R2] + 272364 _f[24,R3]
   + 67768 _f[66,R1] + 85171 _f[66,R2] + 152877 _f[66,R3] + 83193 _f[8,R1]
   + 104557 _f[8,R2] + 187677 _f[8,R3] + 48970 _f[43,R1] + 61546 _f[43,R2]
   + 110472 _f[43,R3] + 93039 _f[74,R1] + 116931 _f[74,R2]
   + 209888 _f[74,R3] + 144336 _f[35,R1] + 181402 _f[35,R2]
   + 325614 _f[35,R3] + 69852 _f[26,R1] + 87791 _f[26,R2]
   + 157582 _f[26,R3] + 64472 _f[15,R1] + 81027 _f[15,R2]
   + 145441 _f[15,R3] + 59677 _f[56,R1] + 75000 _f[56,R2]
   + 134625 _f[56,R3] + 103252 _f[88,R1] + 129767 _f[88,R2]
   + 232930 _f[88,R3] + 65411 _f[142,R1] + 82207 _f[142,R2]
   + 147561 _f[142,R3] + 161383 _f[113,R1] + 202821 _f[113,R2]
   + 364065 _f[113,R3] + 48565 _f[52,R1] + 61038 _f[52,R2]
   + 109562 _f[52,R3] + 118658 _f[37,R1] + 149128 _f[37,R2]
   + 267682 _f[37,R3] + 98826 _f[78,R1] + 124202 _f[78,R2]
   + 222941 _f[78,R3] + 78434 _f[132,R1] + 98576 _f[132,R2]
   + 176941 _f[132,R3] + 35904 _f[50,R1] + 45122 _f[50,R2]
   + 80994 _f[50,R3] + 179180 _f[144,R1] + 225192 _f[144,R2]
   + 404214 _f[144,R3] + 62173 _f[96,R1] + 78136 _f[96,R2]
   + 140250 _f[96,R3] + 95722 _f[120,R1] + 161089 _f[120,R2]
   + 289151 _f[120,R3] + 78468 _f[22,R1] + 98614 _f[22,R2]
   + 177011 _f[22,R3] + 783157 _f[84,R1] + 984264 _f[84,R2]
   + 1.766736e+06 _f[84,R3] + 60614 _f[85,R1] + 76179 _f[85,R2]
   + 136742 _f[85,R3] + 16884 _f[16,R1] + 21219 _f[16,R2] + 38087 _f[16,R3]
   + 42013 _f[20,R1] + 52801 _f[20,R2] + 94777 _f[20,R3] + 43338 _f[128,R1]
   + 54466 _f[128,R2] + 97765 _f[128,R3] + 200216 _f[54,R1]
   + 251629 _f[54,R2] + 451670 _f[54,R3] + 52951 _f[29,R1]
   + 66548 _f[29,R2] + 119449 _f[29,R3] + 65871 _f[14,R1] + 82786 _f[14,R2]
   + 148598 _f[14,R3] + 140670 _f[38,R1] + 176794 _f[38,R2]
   + 317336 _f[38,R3] + 154749 _f[70,R1] + 194488 _f[70,R2]
   + 349102 _f[70,R3] + 871346 _f[143,R1] + 1.0951e+06 _f[143,R2]
   + 1.965685e+06 _f[143,R3] + 94724 _f[48,R1] + 119051 _f[48,R2]
   + 213693 _f[48,R3] + 87606 _f[112,R1] + 110102 _f[112,R2]
   + 197631 _f[112,R3] + 141209 _f[89,R1] + 177472 _f[89,R2]
   + 318557 _f[89,R3] + 115499 _f[129,R1] + 145158 _f[129,R2]
   + 260556 _f[129,R3] + 36509 _f[68,R1] + 45884 _f[68,R2]
   + 82361 _f[68,R3] + 21292 _f[115,R1] + 26760 _f[115,R2]
   + 48033 _f[115,R3] + 22382 _f[111,R1] + 28129 _f[111,R2]
   + 50491 _f[111,R3] + 78936 _f[9,R1] + 99206 _f[9,R2] + 178071 _f[9,R3]
   + 51008 _f[30,R1] + 64107 _f[30,R2] + 115071 _f[30,R3] + 67725 _f[5,R1]
   + 85115 _f[5,R2] + 152780 _f[5,R3] + 5452 _f[67,R1] + 6852 _f[67,R2]
   + 12299 _f[67,R3] + 46689 _f[92,R1] + 58681 _f[92,R2] + 105329 _f[92,R3]
   + 164462 _f[122,R1] + 206695 _f[122,R2] + 371013 _f[122,R3]
   + 20735 _f[133,R1] + 26059 _f[133,R2] + 46774 _f[133,R3]
   + 664 _f[135,R1] + 835 _f[135,R2] + 1498 _f[135,R3] + 47602 _f[73,R1]
   + 59825 _f[73,R2] + 107386 _f[73,R3] + 33082 _f[27,R1] + 41577 _f[27,R2]
   + 74630 _f[27,R3] + 53886 _f[32,R1] + 67723 _f[32,R2] + 121562 _f[32,R3]
   + 59395 _f[18,R1] + 74647 _f[18,R2] + 133989 _f[18,R3] + 31193 _f[45,R1]
   + 39202 _f[45,R2] + 70367 _f[45,R3] + 37236 _f[91,R1] + 46796 _f[91,R2]
   + 83999 _f[91,R3] + 10506 _f[101,R1] + 13204 _f[101,R2]
   + 23701 _f[101,R3] + 11993 _f[49,R1] + 15072 _f[49,R2] + 27055 _f[49,R3]
   + 36687 _f[83,R1] + 46107 _f[83,R2] + 82761 _f[83,R3]
   + 2.229121e+06 _r0[105,Do_nothing,Recover]
   + 2.228456e+06 _r0[105,R1,Recover] + 1.598828e+06 _r0[105,R2,Recover]
   + 973412 _r0[105,R3,Recover] + 7.661119e+06 _r0[19,Do_nothing,Recover]
   + 7.658833e+06 _r0[19,R1,Recover] + 5.494909e+06 _r0[19,R2,Recover]
   + 3.345454e+06 _r0[19,R3,Recover]
   + 6.360047e+06 _r0[150,Do_nothing,Recover]
   + 6.35815e+06 _r0[150,R1,Recover] + 4.56172e+06 _r0[150,R2,Recover]
   + 2.777303e+06 _r0[150,R3,Recover]
   + 8.395899e+06 _r0[61,Do_nothing,Recover]
   + 8.393394e+06 _r0[61,R1,Recover] + 6.021927e+06 _r0[61,R2,Recover]
   + 3.666318e+06 _r0[61,R3,Recover]
   + 1.414964e+06 _r0[109,Do_nothing,Recover]
   + 1.414542e+06 _r0[109,R1,Recover] + 1.014878e+06 _r0[109,R2,Recover]
   + 617886 _r0[109,R3,Recover] + 3.071911e+06 _r0[126,Do_nothing,Recover]
   + 3.070995e+06 _r0[126,R1,Recover] + 2.203317e+06 _r0[126,R2,Recover]
   + 1.341441e+06 _r0[126,R3,Recover]
   + 1.926495e+06 _r0[137,Do_nothing,Recover]
   + 1.92592e+06 _r0[137,R1,Recover] + 1.381771e+06 _r0[137,R2,Recover]
   + 841261 _r0[137,R3,Recover] + 2.0876574e+07 _r0[31,Do_nothing,Recover]
   + 2.0870346e+07 _r0[31,R1,Recover] + 1.4973644e+07 _r0[31,R2,Recover]
   + 9.116374e+06 _r0[31,R3,Recover]
   + 8.841919e+06 _r0[1,Do_nothing,Recover]
   + 8.839281e+06 _r0[1,R1,Recover] + 6.341833e+06 _r0[1,R2,Recover]
   + 3.861086e+06 _r0[1,R3,Recover]
   + 7.028081e+06 _r0[51,Do_nothing,Recover]
   + 7.025984e+06 _r0[51,R1,Recover] + 5.040865e+06 _r0[51,R2,Recover]
   + 3.06902e+06 _r0[51,R3,Recover]
   + 1.0368913e+07 _r0[39,Do_nothing,Recover]
   + 1.036582e+07 _r0[39,R1,Recover] + 7.437064e+06 _r0[39,R2,Recover]
   + 4.527893e+06 _r0[39,R3,Recover]
   + 1.5259548e+07 _r0[81,Do_nothing,Recover]
   + 1.5254996e+07 _r0[81,R1,Recover] + 1.0944854e+07 _r0[81,R2,Recover]
   + 6.663534e+06 _r0[81,R3,Recover]
   + 3.551175e+06 _r0[147,Do_nothing,Recover]
   + 3.550116e+06 _r0[147,R1,Recover] + 2.547067e+06 _r0[147,R2,Recover]
   + 1.550726e+06 _r0[147,R3,Recover]
   + 8.517075e+06 _r0[44,Do_nothing,Recover]
   + 8.514534e+06 _r0[44,R1,Recover] + 6.10884e+06 _r0[44,R2,Recover]
   + 3.719233e+06 _r0[44,R3,Recover]
   + 1.5514733e+07 _r0[97,Do_nothing,Recover]
   + 1.5510104e+07 _r0[97,R1,Recover] + 1.1127884e+07 _r0[97,R2,Recover]
   + 6.774967e+06 _r0[97,R3,Recover]
   + 1.5321833e+07 _r0[71,Do_nothing,Recover]
   + 1.5317261e+07 _r0[71,R1,Recover] + 1.0989527e+07 _r0[71,R2,Recover]
   + 6.690732e+06 _r0[71,R3,Recover]
   + 1.3711423e+07 _r0[134,Do_nothing,Recover]
   + 1.3707333e+07 _r0[134,R1,Recover] + 9.834467e+06 _r0[134,R2,Recover]
   + 5.987499e+06 _r0[134,R3,Recover]
   + 1.6179614e+07 _r0[11,Do_nothing,Recover]
   + 1.6174787e+07 _r0[11,R1,Recover] + 1.1604767e+07 _r0[11,R2,Recover]
   + 7.065307e+06 _r0[11,R3,Recover]
   + 2.1500872e+07 _r0[69,Do_nothing,Recover]
   + 2.1494859e+07 _r0[69,R1,Recover] + 1.5659722e+07 _r0[69,R2,Recover]
   + 9.909848e+06 _r0[69,R3,Recover]
   + 1.2257776e+07 _r0[12,Do_nothing,Recover]
   + 1.2254119e+07 _r0[12,R1,Recover] + 8.791844e+06 _r0[12,R2,Recover]
   + 5.352721e+06 _r0[12,R3,Recover]
   + 3.211623e+07 _r0[87,Do_nothing,Recover]
   + 3.2106649e+07 _r0[87,R1,Recover] + 2.3035246e+07 _r0[87,R2,Recover]
   + 1.4024503e+07 _r0[87,R3,Recover]
   + 3.456735e+06 _r0[123,Do_nothing,Recover]
   + 3.455703e+06 _r0[123,R1,Recover] + 2.47933e+06 _r0[123,R2,Recover]
   + 1.509486e+06 _r0[123,R3,Recover]
   + 6.124205e+06 _r0[148,Do_nothing,Recover]
   + 6.122377e+06 _r0[148,R1,Recover] + 4.392563e+06 _r0[148,R2,Recover]
   + 2.674315e+06 _r0[148,R3,Recover]
   + 1.3389733e+07 _r0[41,Do_nothing,Recover]
   + 1.3385738e+07 _r0[41,R1,Recover] + 9.603735e+06 _r0[41,R2,Recover]
   + 5.847023e+06 _r0[41,R3,Recover]
   + 2.556896e+06 _r0[106,Do_nothing,Recover]
   + 2.556133e+06 _r0[106,R1,Recover] + 1.833924e+06 _r0[106,R2,Recover]
   + 1.116544e+06 _r0[106,R3,Recover]
   + 1.5809615e+07 _r0[34,Do_nothing,Recover]
   + 1.5804898e+07 _r0[34,R1,Recover] + 1.1339387e+07 _r0[34,R2,Recover]
   + 6.903736e+06 _r0[34,R3,Recover]
   + 1.7532994e+07 _r0[114,Do_nothing,Recover]
   + 1.7527764e+07 _r0[114,R1,Recover] + 1.2575474e+07 _r0[114,R2,Recover]
   + 7.656301e+06 _r0[114,R3,Recover]
   + 8.43744e+06 _r0[47,Do_nothing,Recover]
   + 8.434923e+06 _r0[47,R1,Recover] + 6.051722e+06 _r0[47,R2,Recover]
   + 3.684458e+06 _r0[47,R3,Recover]
   + 1.1182056e+07 _r0[75,Do_nothing,Recover]
   + 1.1178719e+07 _r0[75,R1,Recover] + 8.020287e+06 _r0[75,R2,Recover]
   + 4.882976e+06 _r0[75,R3,Recover]
   + 7.929007e+06 _r0[119,Do_nothing,Recover]
   + 7.926642e+06 _r0[119,R1,Recover] + 5.687051e+06 _r0[119,R2,Recover]
   + 3.462436e+06 _r0[119,R3,Recover]
   + 1.4587956e+07 _r0[28,Do_nothing,Recover]
   + 1.4583604e+07 _r0[28,R1,Recover] + 1.0463157e+07 _r0[28,R2,Recover]
   + 6.370263e+06 _r0[28,R3,Recover]
   + 1.059827e+06 _r0[93,Do_nothing,Recover]
   + 1.05951e+06 _r0[93,R1,Recover] + 760157 _r0[93,R2,Recover]
   + 462805 _r0[93,R3,Recover] + 5.023261e+06 _r0[59,Do_nothing,Recover]
   + 5.021762e+06 _r0[59,R1,Recover] + 3.602915e+06 _r0[59,R2,Recover]
   + 2.193556e+06 _r0[59,R3,Recover]
   + 1.6292105e+07 _r0[90,Do_nothing,Recover]
   + 1.6287244e+07 _r0[90,R1,Recover] + 1.1685451e+07 _r0[90,R2,Recover]
   + 7.11443e+06 _r0[90,R3,Recover]
   + 4.7912901e+07 _r0[95,Do_nothing,Recover]
   + 4.7898607e+07 _r0[95,R1,Recover] + 3.4365348e+07 _r0[95,R2,Recover]
   + 2.0922587e+07 _r0[95,R3,Recover]
   + 9.689632e+06 _r0[3,Do_nothing,Recover]
   + 9.686742e+06 _r0[3,R1,Recover] + 6.949852e+06 _r0[3,R2,Recover]
   + 4.231265e+06 _r0[3,R3,Recover]
   + 3.213701e+07 _r0[82,Do_nothing,Recover]
   + 3.2127422e+07 _r0[82,R1,Recover] + 2.305015e+07 _r0[82,R2,Recover]
   + 1.4033577e+07 _r0[82,R3,Recover]
   + 1.3603357e+07 _r0[72,Do_nothing,Recover]
   + 1.3599299e+07 _r0[72,R1,Recover] + 9.756957e+06 _r0[72,R2,Recover]
   + 5.940309e+06 _r0[72,R3,Recover]
   + 2.0907274e+07 _r0[46,Do_nothing,Recover]
   + 2.0901036e+07 _r0[46,R1,Recover] + 1.4995663e+07 _r0[46,R2,Recover]
   + 9.12978e+06 _r0[46,R3,Recover]
   + 9.06703e+06 _r0[33,Do_nothing,Recover]
   + 9.064325e+06 _r0[33,R1,Recover] + 6.503293e+06 _r0[33,R2,Recover]
   + 3.959387e+06 _r0[33,R3,Recover]
   + 1.891855e+07 _r0[116,Do_nothing,Recover]
   + 1.8912906e+07 _r0[116,R1,Recover] + 1.3569259e+07 _r0[116,R2,Recover]
   + 8.261345e+06 _r0[116,R3,Recover]
   + 1.1326832e+07 _r0[13,Do_nothing,Recover]
   + 1.1323453e+07 _r0[13,R1,Recover] + 8.124128e+06 _r0[13,R2,Recover]
   + 4.946197e+06 _r0[13,R3,Recover]
   + 8.145748e+06 _r0[104,Do_nothing,Recover]
   + 8.143318e+06 _r0[104,R1,Recover] + 5.842507e+06 _r0[104,R2,Recover]
   + 3.557082e+06 _r0[104,R3,Recover]
   + 2.4654096e+07 _r0[130,Do_nothing,Recover]
   + 2.4646741e+07 _r0[130,R1,Recover] + 1.7683058e+07 _r0[130,R2,Recover]
   + 1.0765941e+07 _r0[130,R3,Recover]
   + 1.8542227e+07 _r0[139,Do_nothing,Recover]
   + 1.8536695e+07 _r0[139,R1,Recover] + 1.3299342e+07 _r0[139,R2,Recover]
   + 8.097012e+06 _r0[139,R3,Recover]
   + 1.9388097e+07 _r0[36,Do_nothing,Recover]
   + 1.9382312e+07 _r0[36,R1,Recover] + 1.3906039e+07 _r0[36,R2,Recover]
   + 8.466386e+06 _r0[36,R3,Recover]
   + 1.3534085e+07 _r0[25,Do_nothing,Recover]
   + 1.3530047e+07 _r0[25,R1,Recover] + 9.707272e+06 _r0[25,R2,Recover]
   + 5.910059e+06 _r0[25,R3,Recover]
   + 1.3986724e+07 _r0[64,Do_nothing,Recover]
   + 1.3982551e+07 _r0[64,R1,Recover] + 1.0031925e+07 _r0[64,R2,Recover]
   + 6.107717e+06 _r0[64,R3,Recover]
   + 1.8956606e+07 _r0[110,Do_nothing,Recover]
   + 1.8950951e+07 _r0[110,R1,Recover] + 1.3596555e+07 _r0[110,R2,Recover]
   + 8.277963e+06 _r0[110,R3,Recover]
   + 1.1276146e+07 _r0[10,Do_nothing,Recover]
   + 1.1272781e+07 _r0[10,R1,Recover] + 8.087773e+06 _r0[10,R2,Recover]
   + 4.924063e+06 _r0[10,R3,Recover]
   + 2.222907e+07 _r0[7,Do_nothing,Recover]
   + 2.2222438e+07 _r0[7,R1,Recover] + 1.5943717e+07 _r0[7,R2,Recover]
   + 9.706981e+06 _r0[7,R3,Recover]
   + 7.6176511e+07 _r0[80,Do_nothing,Recover]
   + 7.6153784e+07 _r0[80,R1,Recover] + 5.4637316e+07 _r0[80,R2,Recover]
   + 3.3264729e+07 _r0[80,R3,Recover]
   + 3.3581218e+07 _r0[124,Do_nothing,Recover]
   + 3.3571199e+07 _r0[124,R1,Recover] + 2.4086002e+07 _r0[124,R2,Recover]
   + 1.4664233e+07 _r0[124,R3,Recover]
   + 1.0942949e+07 _r0[127,Do_nothing,Recover]
   + 1.0939684e+07 _r0[127,R1,Recover] + 7.848789e+06 _r0[127,R2,Recover]
   + 4.778563e+06 _r0[127,R3,Recover]
   + 1.4352187e+07 _r0[40,Do_nothing,Recover]
   + 1.4347905e+07 _r0[40,R1,Recover] + 1.0294052e+07 _r0[40,R2,Recover]
   + 6.267307e+06 _r0[40,R3,Recover]
   + 1.4990628e+07 _r0[103,Do_nothing,Recover]
   + 1.4986155e+07 _r0[103,R1,Recover] + 1.0751971e+07 _r0[103,R2,Recover]
   + 6.546101e+06 _r0[103,R3,Recover]
   + 7.848562e+06 _r0[118,Do_nothing,Recover]
   + 7.84622e+06 _r0[118,R1,Recover] + 5.629351e+06 _r0[118,R2,Recover]
   + 3.427307e+06 _r0[118,R3,Recover]
   + 1.5585185e+07 _r0[136,Do_nothing,Recover]
   + 1.5580535e+07 _r0[136,R1,Recover] + 1.1178415e+07 _r0[136,R2,Recover]
   + 6.805732e+06 _r0[136,R3,Recover]
   + 1.1155984e+07 _r0[65,Do_nothing,Recover]
   + 1.1152656e+07 _r0[65,R1,Recover] + 8.001588e+06 _r0[65,R2,Recover]
   + 4.871591e+06 _r0[65,R3,Recover]
   + 1.9749872e+07 _r0[62,Do_nothing,Recover]
   + 1.974398e+07 _r0[62,R1,Recover] + 1.4165522e+07 _r0[62,R2,Recover]
   + 8.624366e+06 _r0[62,R3,Recover]
   + 7.237539e+06 _r0[125,Do_nothing,Recover]
   + 7.23538e+06 _r0[125,R1,Recover] + 5.191098e+06 _r0[125,R2,Recover]
   + 3.160486e+06 _r0[125,R3,Recover]
   + 2.275954e+06 _r0[60,Do_nothing,Recover]
   + 2.275275e+06 _r0[60,R1,Recover] + 1.632419e+06 _r0[60,R2,Recover]
   + 993863 _r0[60,R3,Recover] + 2.048845e+07 _r0[17,Do_nothing,Recover]
   + 2.0482338e+07 _r0[17,R1,Recover] + 1.4695264e+07 _r0[17,R2,Recover]
   + 8.946888e+06 _r0[17,R3,Recover]
   + 1.249419e+07 _r0[53,Do_nothing,Recover]
   + 1.2490463e+07 _r0[53,R1,Recover] + 8.961411e+06 _r0[53,R2,Recover]
   + 5.455958e+06 _r0[53,R3,Recover]
   + 9.482055e+06 _r0[131,Do_nothing,Recover]
   + 9.479226e+06 _r0[131,R1,Recover] + 6.800969e+06 _r0[131,R2,Recover]
   + 4.14062e+06 _r0[131,R3,Recover]
   + 5.549173e+06 _r0[55,Do_nothing,Recover]
   + 5.547518e+06 _r0[55,R1,Recover] + 3.980124e+06 _r0[55,R2,Recover]
   + 2.423211e+06 _r0[55,R3,Recover]
   + 1.1630509e+07 _r0[58,Do_nothing,Recover]
   + 1.1627039e+07 _r0[58,R1,Recover] + 8.341939e+06 _r0[58,R2,Recover]
   + 5.078806e+06 _r0[58,R3,Recover]
   + 8.67533e+06 _r0[107,Do_nothing,Recover]
   + 8.672741e+06 _r0[107,R1,Recover] + 6.222348e+06 _r0[107,R2,Recover]
   + 3.78834e+06 _r0[107,R3,Recover]
   + 2.0297154e+07 _r0[4,Do_nothing,Recover]
   + 2.0291099e+07 _r0[4,R1,Recover] + 1.4558058e+07 _r0[4,R2,Recover]
   + 8.863353e+06 _r0[4,R3,Recover]
   + 4.749786e+06 _r0[149,Do_nothing,Recover]
   + 4.748369e+06 _r0[149,R1,Recover] + 3.406766e+06 _r0[149,R2,Recover]
   + 2.074135e+06 _r0[149,R3,Recover]
   + 3.185398e+06 _r0[63,Do_nothing,Recover]
   + 3.184448e+06 _r0[63,R1,Recover] + 2.284715e+06 _r0[63,R2,Recover]
   + 1.390999e+06 _r0[63,R3,Recover]
   + 9.399249e+06 _r0[57,Do_nothing,Recover]
   + 9.396445e+06 _r0[57,R1,Recover] + 6.741576e+06 _r0[57,R2,Recover]
   + 4.104461e+06 _r0[57,R3,Recover]
   + 2.351329e+06 _r0[23,Do_nothing,Recover]
   + 2.350627e+06 _r0[23,R1,Recover] + 1.686482e+06 _r0[23,R2,Recover]
   + 1.026777e+06 _r0[23,R3,Recover]
   + 5.09493e+06 _r0[117,Do_nothing,Recover]
   + 5.09341e+06 _r0[117,R1,Recover] + 3.654319e+06 _r0[117,R2,Recover]
   + 2.224852e+06 _r0[117,R3,Recover]
   + 4.397985e+06 _r0[108,Do_nothing,Recover]
   + 4.396673e+06 _r0[108,R1,Recover] + 3.154438e+06 _r0[108,R2,Recover]
   + 1.92051e+06 _r0[108,R3,Recover]
   + 1.1682597e+07 _r0[138,Do_nothing,Recover]
   + 1.1679111e+07 _r0[138,R1,Recover] + 8.379299e+06 _r0[138,R2,Recover]
   + 5.101552e+06 _r0[138,R3,Recover]
   + 1.2241145e+07 _r0[6,Do_nothing,Recover]
   + 1.2237493e+07 _r0[6,R1,Recover] + 8.779915e+06 _r0[6,R2,Recover]
   + 5.345458e+06 _r0[6,R3,Recover]
   + 3.836506e+06 _r0[86,Do_nothing,Recover]
   + 3.835361e+06 _r0[86,R1,Recover] + 2.751719e+06 _r0[86,R2,Recover]
   + 1.675324e+06 _r0[86,R3,Recover]
   + 2.3640789e+07 _r0[121,Do_nothing,Recover]
   + 2.363415e+07 _r0[121,R1,Recover] + 1.7201911e+07 _r0[121,R2,Recover]
   + 1.0860351e+07 _r0[121,R3,Recover]
   + 5.579873e+06 _r0[145,Do_nothing,Recover]
   + 5.578208e+06 _r0[145,R1,Recover] + 4.002143e+06 _r0[145,R2,Recover]
   + 2.436617e+06 _r0[145,R3,Recover]
   + 6.719112e+06 _r0[99,Do_nothing,Recover]
   + 6.717108e+06 _r0[99,R1,Recover] + 4.819258e+06 _r0[99,R2,Recover]
   + 2.934099e+06 _r0[99,R3,Recover] + 7.017e+06 _r0[21,Do_nothing,Recover]
   + 7.014906e+06 _r0[21,R1,Recover] + 5.032917e+06 _r0[21,R2,Recover]
   + 3.064181e+06 _r0[21,R3,Recover]
   + 7.066432e+06 _r0[42,Do_nothing,Recover]
   + 7.064324e+06 _r0[42,R1,Recover] + 5.068372e+06 _r0[42,R2,Recover]
   + 3.085767e+06 _r0[42,R3,Recover]
   + 1.2445071e+07 _r0[98,Do_nothing,Recover]
   + 1.2441358e+07 _r0[98,R1,Recover] + 8.92618e+06 _r0[98,R2,Recover]
   + 5.434509e+06 _r0[98,R3,Recover]
   + 6.536206e+06 _r0[100,Do_nothing,Recover]
   + 6.534256e+06 _r0[100,R1,Recover] + 4.688069e+06 _r0[100,R2,Recover]
   + 2.854228e+06 _r0[100,R3,Recover]
   + 4.3331087e+07 _r0[76,Do_nothing,Recover]
   + 4.331816e+07 _r0[76,R1,Recover] + 3.107906e+07 _r0[76,R2,Recover]
   + 1.8921802e+07 _r0[76,R3,Recover]
   + 7.5499037e+07 _r0[102,Do_nothing,Recover]
   + 7.5476512e+07 _r0[102,R1,Recover] + 5.41514e+07 _r0[102,R2,Recover]
   + 3.296889e+07 _r0[102,R3,Recover]
   + 2.800372e+06 _r0[141,Do_nothing,Recover]
   + 2.799537e+06 _r0[141,R1,Recover] + 2.008557e+06 _r0[141,R2,Recover]
   + 1.222865e+06 _r0[141,R3,Recover]
   + 1.7325233e+07 _r0[146,Do_nothing,Recover]
   + 1.7320064e+07 _r0[146,R1,Recover] + 1.2426458e+07 _r0[146,R2,Recover]
   + 7.565576e+06 _r0[146,R3,Recover]
   + 2.5746872e+07 _r0[94,Do_nothing,Recover]
   + 2.573919e+07 _r0[94,R1,Recover] + 1.8466847e+07 _r0[94,R2,Recover]
   + 1.1243134e+07 _r0[94,R3,Recover]
   + 3.2971596e+07 _r0[79,Do_nothing,Recover]
   + 3.2961759e+07 _r0[79,R1,Recover] + 2.3648753e+07 _r0[79,R2,Recover]
   + 1.4398024e+07 _r0[79,R3,Recover]
   + 2.6069614e+07 _r0[2,Do_nothing,Recover]
   + 2.6061836e+07 _r0[2,R1,Recover] + 1.8698332e+07 _r0[2,R2,Recover]
   + 1.1384069e+07 _r0[2,R3,Recover]
   + 3.6308022e+07 _r0[140,Do_nothing,Recover]
   + 3.6297189e+07 _r0[140,R1,Recover] + 2.6041792e+07 _r0[140,R2,Recover]
   + 1.5854973e+07 _r0[140,R3,Recover]
   + 1.0831159e+07 _r0[77,Do_nothing,Recover]
   + 1.0827927e+07 _r0[77,R1,Recover] + 7.768608e+06 _r0[77,R2,Recover]
   + 4.729746e+06 _r0[77,R3,Recover]
   + 1.5265061e+07 _r0[24,Do_nothing,Recover]
   + 1.5260507e+07 _r0[24,R1,Recover] + 1.0948808e+07 _r0[24,R2,Recover]
   + 6.665941e+06 _r0[24,R3,Recover]
   + 2.6197261e+07 _r0[66,Do_nothing,Recover]
   + 2.6189445e+07 _r0[66,R1,Recover] + 1.8789887e+07 _r0[66,R2,Recover]
   + 1.143981e+07 _r0[66,R3,Recover]
   + 6.226149e+06 _r0[8,Do_nothing,Recover]
   + 6.224292e+06 _r0[8,R1,Recover] + 4.465682e+06 _r0[8,R2,Recover]
   + 2.718832e+06 _r0[8,R3,Recover]
   + 9.122345e+06 _r0[43,Do_nothing,Recover]
   + 9.119623e+06 _r0[43,R1,Recover] + 6.542968e+06 _r0[43,R2,Recover]
   + 3.983542e+06 _r0[43,R3,Recover]
   + 1.5064472e+07 _r0[74,Do_nothing,Recover]
   + 1.5059978e+07 _r0[74,R1,Recover] + 1.0804936e+07 _r0[74,R2,Recover]
   + 6.578348e+06 _r0[74,R3,Recover]
   + 1.3890716e+07 _r0[35,Do_nothing,Recover]
   + 1.3886572e+07 _r0[35,R1,Recover] + 9.963064e+06 _r0[35,R2,Recover]
   + 6.065793e+06 _r0[35,R3,Recover] + 3.137e+07 _r0[26,Do_nothing,Recover]
   + 3.1360641e+07 _r0[26,R1,Recover] + 2.2500015e+07 _r0[26,R2,Recover]
   + 1.3698639e+07 _r0[26,R3,Recover]
   + 9.673499e+06 _r0[15,Do_nothing,Recover]
   + 9.670613e+06 _r0[15,R1,Recover] + 6.938281e+06 _r0[15,R2,Recover]
   + 4.22422e+06 _r0[15,R3,Recover]
   + 5.1001297e+07 _r0[56,Do_nothing,Recover]
   + 5.0986081e+07 _r0[56,R1,Recover] + 3.6580488e+07 _r0[56,R2,Recover]
   + 2.2271226e+07 _r0[56,R3,Recover]
   + 1.4489994e+07 _r0[88,Do_nothing,Recover]
   + 1.4485671e+07 _r0[88,R1,Recover] + 1.0392894e+07 _r0[88,R2,Recover]
   + 6.327485e+06 _r0[88,R3,Recover]
   + 1.1750873e+07 _r0[142,Do_nothing,Recover]
   + 1.1747368e+07 _r0[142,R1,Recover] + 8.42827e+06 _r0[142,R2,Recover]
   + 5.131367e+06 _r0[142,R3,Recover]
   + 1.0916361e+07 _r0[113,Do_nothing,Recover]
   + 1.0913105e+07 _r0[113,R1,Recover] + 7.829719e+06 _r0[113,R2,Recover]
   + 4.766952e+06 _r0[113,R3,Recover]
   + 7.858371e+06 _r0[52,Do_nothing,Recover]
   + 7.856026e+06 _r0[52,R1,Recover] + 5.636387e+06 _r0[52,R2,Recover]
   + 3.43159e+06 _r0[52,R3,Recover]
   + 1.421368e+07 _r0[37,Do_nothing,Recover]
   + 1.4209439e+07 _r0[37,R1,Recover] + 1.0194708e+07 _r0[37,R2,Recover]
   + 6.206824e+06 _r0[37,R3,Recover]
   + 1.2711816e+07 _r0[78,Do_nothing,Recover]
   + 1.2708024e+07 _r0[78,R1,Recover] + 9.117502e+06 _r0[78,R2,Recover]
   + 5.550991e+06 _r0[78,R3,Recover]
   + 1.1481658e+07 _r0[132,Do_nothing,Recover]
   + 1.1478232e+07 _r0[132,R1,Recover] + 8.235176e+06 _r0[132,R2,Recover]
   + 5.013806e+06 _r0[132,R3,Recover]
   + 1.5674924e+07 _r0[50,Do_nothing,Recover]
   + 1.5670247e+07 _r0[50,R1,Recover] + 1.124278e+07 _r0[50,R2,Recover]
   + 6.84492e+06 _r0[50,R3,Recover]
   + 1.7898919e+07 _r0[144,Do_nothing,Recover]
   + 1.7893579e+07 _r0[144,R1,Recover] + 1.2837932e+07 _r0[144,R2,Recover]
   + 7.816093e+06 _r0[144,R3,Recover]
   + 9.789973e+06 _r0[96,Do_nothing,Recover]
   + 9.787052e+06 _r0[96,R1,Recover] + 7.021821e+06 _r0[96,R2,Recover]
   + 4.275082e+06 _r0[96,R3,Recover]
   + 2.6805887e+07 _r0[120,Do_nothing,Recover]
   + 2.6801643e+07 _r0[120,R1,Recover] + 2.1454671e+07 _r0[120,R2,Recover]
   + 1.6575846e+07 _r0[120,R3,Recover]
   + 9.280876e+06 _r0[22,Do_nothing,Recover]
   + 9.278107e+06 _r0[22,R1,Recover] + 6.656674e+06 _r0[22,R2,Recover]
   + 4.052769e+06 _r0[22,R3,Recover]
   + 1.9981161e+07 _r0[84,Do_nothing,Recover]
   + 1.9975199e+07 _r0[84,R1,Recover] + 1.4331412e+07 _r0[84,R2,Recover]
   + 8.725365e+06 _r0[84,R3,Recover]
   + 8.980795e+06 _r0[85,Do_nothing,Recover]
   + 8.978116e+06 _r0[85,R1,Recover] + 6.441441e+06 _r0[85,R2,Recover]
   + 3.92173e+06 _r0[85,R3,Recover] + 884424 _r0[16,Do_nothing,Recover]
   + 884160 _r0[16,R1,Recover] + 634350 _r0[16,R2,Recover]
   + 386210 _r0[16,R3,Recover] + 3.552079e+06 _r0[20,Do_nothing,Recover]
   + 3.551019e+06 _r0[20,R1,Recover] + 2.547715e+06 _r0[20,R2,Recover]
   + 1.55112e+06 _r0[20,R3,Recover]
   + 5.063327e+06 _r0[128,Do_nothing,Recover]
   + 5.061816e+06 _r0[128,R1,Recover] + 3.631652e+06 _r0[128,R2,Recover]
   + 2.211052e+06 _r0[128,R3,Recover]
   + 2.2537319e+07 _r0[54,Do_nothing,Recover]
   + 2.2530595e+07 _r0[54,R1,Recover] + 1.6164808e+07 _r0[54,R2,Recover]
   + 9.841588e+06 _r0[54,R3,Recover]
   + 4.660656e+06 _r0[29,Do_nothing,Recover]
   + 4.659265e+06 _r0[29,R1,Recover] + 3.342838e+06 _r0[29,R2,Recover]
   + 2.035213e+06 _r0[29,R3,Recover]
   + 1.5790974e+07 _r0[14,Do_nothing,Recover]
   + 1.5786262e+07 _r0[14,R1,Recover] + 1.1326016e+07 _r0[14,R2,Recover]
   + 6.895596e+06 _r0[14,R3,Recover]
   + 7.1790179e+07 _r0[38,Do_nothing,Recover]
   + 7.176876e+07 _r0[38,R1,Recover] + 5.1491236e+07 _r0[38,R2,Recover]
   + 3.1349307e+07 _r0[38,R3,Recover]
   + 2.0712437e+07 _r0[70,Do_nothing,Recover]
   + 2.0706258e+07 _r0[70,R1,Recover] + 1.4855918e+07 _r0[70,R2,Recover]
   + 9.044699e+06 _r0[70,R3,Recover]
   + 1.95604973e+08 _r0[143,Do_nothing,Recover]
   + 1.95546615e+08 _r0[143,R1,Recover]
   + 1.40296932e+08 _r0[143,R2,Recover] + 8.5416702e+07 _r0[143,R3,Recover]
   + 2.7899585e+07 _r0[48,Do_nothing,Recover]
   + 2.7891261e+07 _r0[48,R1,Recover] + 2.0010872e+07 _r0[48,R2,Recover]
   + 1.218318e+07 _r0[48,R3,Recover]
   + 1.53659e+07 _r0[112,Do_nothing,Recover]
   + 1.5361316e+07 _r0[112,R1,Recover] + 1.1021134e+07 _r0[112,R2,Recover]
   + 6.709975e+06 _r0[112,R3,Recover]
   + 1.0010162e+07 _r0[89,Do_nothing,Recover]
   + 1.0007175e+07 _r0[89,R1,Recover] + 7.179751e+06 _r0[89,R2,Recover]
   + 4.371233e+06 _r0[89,R3,Recover]
   + 5.1990929e+07 _r0[129,Do_nothing,Recover]
   + 5.1975418e+07 _r0[129,R1,Recover] + 3.7290298e+07 _r0[129,R2,Recover]
   + 2.2703378e+07 _r0[129,R3,Recover]
   + 8.470076e+06 _r0[68,Do_nothing,Recover]
   + 8.467549e+06 _r0[68,R1,Recover] + 6.07513e+06 _r0[68,R2,Recover]
   + 3.698709e+06 _r0[68,R3,Recover]
   + 8.864229e+06 _r0[115,Do_nothing,Recover]
   + 8.861584e+06 _r0[115,R1,Recover] + 6.357835e+06 _r0[115,R2,Recover]
   + 3.870828e+06 _r0[115,R3,Recover] + 880257 _r0[111,Do_nothing,Recover]
   + 879995 _r0[111,R1,Recover] + 631361 _r0[111,R2,Recover]
   + 384390 _r0[111,R3,Recover] + 5.511117e+06 _r0[9,Do_nothing,Recover]
   + 5.509472e+06 _r0[9,R1,Recover] + 3.952828e+06 _r0[9,R2,Recover]
   + 2.406592e+06 _r0[9,R3,Recover]
   + 1.307599e+06 _r0[30,Do_nothing,Recover]
   + 1.307209e+06 _r0[30,R1,Recover] + 937870 _r0[30,R2,Recover]
   + 571002 _r0[30,R3,Recover] + 2.0558294e+07 _r0[5,Do_nothing,Recover]
   + 2.0552161e+07 _r0[5,R1,Recover] + 1.4745359e+07 _r0[5,R2,Recover]
   + 8.977388e+06 _r0[5,R3,Recover]
   + 1.411387e+06 _r0[67,Do_nothing,Recover]
   + 1.410966e+06 _r0[67,R1,Recover] + 1.012312e+06 _r0[67,R2,Recover]
   + 616324 _r0[67,R3,Recover] + 4.315511e+06 _r0[92,Do_nothing,Recover]
   + 4.314224e+06 _r0[92,R1,Recover] + 3.095284e+06 _r0[92,R2,Recover]
   + 1.884496e+06 _r0[92,R3,Recover]
   + 2.9685599e+07 _r0[122,Do_nothing,Recover]
   + 2.9676742e+07 _r0[122,R1,Recover] + 2.1291884e+07 _r0[122,R2,Recover]
   + 1.2963096e+07 _r0[122,R3,Recover]
   + 4.810665e+07 _r0[133,Do_nothing,Recover]
   + 4.8092298e+07 _r0[133,R1,Recover] + 3.4504314e+07 _r0[133,R2,Recover]
   + 2.1007193e+07 _r0[133,R3,Recover] + 97151 _r0[135,Do_nothing,Recover]
   + 97122 _r0[135,R1,Recover] + 69681 _r0[135,R2,Recover]
   + 42424 _r0[135,R3,Recover] + 6.120425e+06 _r0[73,Do_nothing,Recover]
   + 6.118599e+06 _r0[73,R1,Recover] + 4.389852e+06 _r0[73,R2,Recover]
   + 2.672665e+06 _r0[73,R3,Recover]
   + 1.378918e+06 _r0[27,Do_nothing,Recover]
   + 1.378506e+06 _r0[27,R1,Recover] + 989024 _r0[27,R2,Recover]
   + 602145 _r0[27,R3,Recover] + 4.147115e+06 _r0[32,Do_nothing,Recover]
   + 4.145878e+06 _r0[32,R1,Recover] + 2.974503e+06 _r0[32,R2,Recover]
   + 1.810961e+06 _r0[32,R3,Recover]
   + 7.673049e+06 _r0[18,Do_nothing,Recover]
   + 7.670759e+06 _r0[18,R1,Recover] + 5.503465e+06 _r0[18,R2,Recover]
   + 3.350664e+06 _r0[18,R3,Recover]
   + 1.106291e+06 _r0[45,Do_nothing,Recover]
   + 1.105961e+06 _r0[45,R1,Recover] + 793483 _r0[45,R2,Recover]
   + 483095 _r0[45,R3,Recover] + 1.422948e+06 _r0[91,Do_nothing,Recover]
   + 1.422524e+06 _r0[91,R1,Recover] + 1.020604e+06 _r0[91,R2,Recover]
   + 621372 _r0[91,R3,Recover] + 354917 _r0[101,Do_nothing,Recover]
   + 354811 _r0[101,R1,Recover] + 254563 _r0[101,R2,Recover]
   + 154985 _r0[101,R3,Recover] + 1.8390093e+07 _r0[49,Do_nothing,Recover]
   + 1.8384607e+07 _r0[49,R1,Recover] + 1.3190225e+07 _r0[49,R2,Recover]
   + 8.030579e+06 _r0[49,R3,Recover] + 396329 _r0[83,Do_nothing,Recover]
   + 396210 _r0[83,R1,Recover] + 284265 _r0[83,R2,Recover]
   + 173069 _r0[83,R3,Recover] <= 0
 R152: - _f[105,Do_nothing] + _r0[105,Do_nothing,Do_nothing]
   + _r0[105,Do_nothing,Recover] = 0
 R153: - _f[105,R1] + _r0[105,R1,Do_nothing] + _r0[105,R1,Recover] = 0
 R154: - _f[105,R2] + _r0[105,R2,Do_nothing] + _r0[105,R2,Recover] = 0
 R155: - _f[105,R3] + _r0[105,R3,Do_nothing] + _r0[105,R3,Recover] = 0
 R156: - _f[19,Do_nothing] + _r0[19,Do_nothing,Do_nothing]
   + _r0[19,Do_nothing,Recover] = 0
 R157: - _f[19,R1] + _r0[19,R1,Do_nothing] + _r0[19,R1,Recover] = 0
 R158: - _f[19,R2] + _r0[19,R2,Do_nothing] + _r0[19,R2,Recover] = 0
 R159: - _f[19,R3] + _r0[19,R3,Do_nothing] + _r0[19,R3,Recover] = 0
 R160: - _f[150,Do_nothing] + _r0[150,Do_nothing,Do_nothing]
   + _r0[150,Do_nothing,Recover] = 0
 R161: - _f[150,R1] + _r0[150,R1,Do_nothing] + _r0[150,R1,Recover] = 0
 R162: - _f[150,R2] + _r0[150,R2,Do_nothing] + _r0[150,R2,Recover] = 0
 R163: - _f[150,R3] + _r0[150,R3,Do_nothing] + _r0[150,R3,Recover] = 0
 R164: - _f[61,Do_nothing] + _r0[61,Do_nothing,Do_nothing]
   + _r0[61,Do_nothing,Recover] = 0
 R165: - _f[61,R1] + _r0[61,R1,Do_nothing] + _r0[61,R1,Recover] = 0
 R166: - _f[61,R2] + _r0[61,R2,Do_nothing] + _r0[61,R2,Recover] = 0
 R167: - _f[61,R3] + _r0[61,R3,Do_nothing] + _r0[61,R3,Recover] = 0
 R168: - _f[109,Do_nothing] + _r0[109,Do_nothing,Do_nothing]
   + _r0[109,Do_nothing,Recover] = 0
 R169: - _f[109,R1] + _r0[109,R1,Do_nothing] + _r0[109,R1,Recover] = 0
 R170: - _f[109,R2] + _r0[109,R2,Do_nothing] + _r0[109,R2,Recover] = 0
 R171: - _f[109,R3] + _r0[109,R3,Do_nothing] + _r0[109,R3,Recover] = 0
 R172: - _f[126,Do_nothing] + _r0[126,Do_nothing,Do_nothing]
   + _r0[126,Do_nothing,Recover] = 0
 R173: - _f[126,R1] + _r0[126,R1,Do_nothing] + _r0[126,R1,Recover] = 0
 R174: - _f[126,R2] + _r0[126,R2,Do_nothing] + _r0[126,R2,Recover] = 0
 R175: - _f[126,R3] + _r0[126,R3,Do_nothing] + _r0[126,R3,Recover] = 0
 R176: - _f[137,Do_nothing] + _r0[137,Do_nothing,Do_nothing]
   + _r0[137,Do_nothing,Recover] = 0
 R177: - _f[137,R1] + _r0[137,R1,Do_nothing] + _r0[137,R1,Recover] = 0
 R178: - _f[137,R2] + _r0[137,R2,Do_nothing] + _r0[137,R2,Recover] = 0
 R179: - _f[137,R3] + _r0[137,R3,Do_nothing] + _r0[137,R3,Recover] = 0
 R180: - _f[31,Do_nothing] + _r0[31,Do_nothing,Do_nothing]
   + _r0[31,Do_nothing,Recover] = 0
 R181: - _f[31,R1] + _r0[31,R1,Do_nothing] + _r0[31,R1,Recover] = 0
 R182: - _f[31,R2] + _r0[31,R2,Do_nothing] + _r0[31,R2,Recover] = 0
 R183: - _f[31,R3] + _r0[31,R3,Do_nothing] + _r0[31,R3,Recover] = 0
 R184: - _f[1,Do_nothing] + _r0[1,Do_nothing,Do_nothing]
   + _r0[1,Do_nothing,Recover] = 0
 R185: - _f[1,R1] + _r0[1,R1,Do_nothing] + _r0[1,R1,Recover] = 0
 R186: - _f[1,R2] + _r0[1,R2,Do_nothing] + _r0[1,R2,Recover] = 0
 R187: - _f[1,R3] + _r0[1,R3,Do_nothing] + _r0[1,R3,Recover] = 0
 R188: - _f[51,Do_nothing] + _r0[51,Do_nothing,Do_nothing]
   + _r0[51,Do_nothing,Recover] = 0
 R189: - _f[51,R1] + _r0[51,R1,Do_nothing] + _r0[51,R1,Recover] = 0
 R190: - _f[51,R2] + _r0[51,R2,Do_nothing] + _r0[51,R2,Recover] = 0
 R191: - _f[51,R3] + _r0[51,R3,Do_nothing] + _r0[51,R3,Recover] = 0
 R192: - _f[39,Do_nothing] + _r0[39,Do_nothing,Do_nothing]
   + _r0[39,Do_nothing,Recover] = 0
 R193: - _f[39,R1] + _r0[39,R1,Do_nothing] + _r0[39,R1,Recover] = 0
 R194: - _f[39,R2] + _r0[39,R2,Do_nothing] + _r0[39,R2,Recover] = 0
 R195: - _f[39,R3] + _r0[39,R3,Do_nothing] + _r0[39,R3,Recover] = 0
 R196: - _f[81,Do_nothing] + _r0[81,Do_nothing,Do_nothing]
   + _r0[81,Do_nothing,Recover] = 0
 R197: - _f[81,R1] + _r0[81,R1,Do_nothing] + _r0[81,R1,Recover] = 0
 R198: - _f[81,R2] + _r0[81,R2,Do_nothing] + _r0[81,R2,Recover] = 0
 R199: - _f[81,R3] + _r0[81,R3,Do_nothing] + _r0[81,R3,Recover] = 0
 R200: - _f[147,Do_nothing] + _r0[147,Do_nothing,Do_nothing]
   + _r0[147,Do_nothing,Recover] = 0
 R201: - _f[147,R1] + _r0[147,R1,Do_nothing] + _r0[147,R1,Recover] = 0
 R202: - _f[147,R2] + _r0[147,R2,Do_nothing] + _r0[147,R2,Recover] = 0
 R203: - _f[147,R3] + _r0[147,R3,Do_nothing] + _r0[147,R3,Recover] = 0
 R204: - _f[44,Do_nothing] + _r0[44,Do_nothing,Do_nothing]
   + _r0[44,Do_nothing,Recover] = 0
 R205: - _f[44,R1] + _r0[44,R1,Do_nothing] + _r0[44,R1,Recover] = 0
 R206: - _f[44,R2] + _r0[44,R2,Do_nothing] + _r0[44,R2,Recover] = 0
 R207: - _f[44,R3] + _r0[44,R3,Do_nothing] + _r0[44,R3,Recover] = 0
 R208: - _f[97,Do_nothing] + _r0[97,Do_nothing,Do_nothing]
   + _r0[97,Do_nothing,Recover] = 0
 R209: - _f[97,R1] + _r0[97,R1,Do_nothing] + _r0[97,R1,Recover] = 0
 R210: - _f[97,R2] + _r0[97,R2,Do_nothing] + _r0[97,R2,Recover] = 0
 R211: - _f[97,R3] + _r0[97,R3,Do_nothing] + _r0[97,R3,Recover] = 0
 R212: - _f[71,Do_nothing] + _r0[71,Do_nothing,Do_nothing]
   + _r0[71,Do_nothing,Recover] = 0
 R213: - _f[71,R1] + _r0[71,R1,Do_nothing] + _r0[71,R1,Recover] = 0
 R214: - _f[71,R2] + _r0[71,R2,Do_nothing] + _r0[71,R2,Recover] = 0
 R215: - _f[71,R3] + _r0[71,R3,Do_nothing] + _r0[71,R3,Recover] = 0
 R216: - _f[134,Do_nothing] + _r0[134,Do_nothing,Do_nothing]
   + _r0[134,Do_nothing,Recover] = 0
 R217: - _f[134,R1] + _r0[134,R1,Do_nothing] + _r0[134,R1,Recover] = 0
 R218: - _f[134,R2] + _r0[134,R2,Do_nothing] + _r0[134,R2,Recover] = 0
 R219: - _f[134,R3] + _r0[134,R3,Do_nothing] + _r0[134,R3,Recover] = 0
 R220: - _f[11,Do_nothing] + _r0[11,Do_nothing,Do_nothing]
   + _r0[11,Do_nothing,Recover] = 0
 R221: - _f[11,R1] + _r0[11,R1,Do_nothing] + _r0[11,R1,Recover] = 0
 R222: - _f[11,R2] + _r0[11,R2,Do_nothing] + _r0[11,R2,Recover] = 0
 R223: - _f[11,R3] + _r0[11,R3,Do_nothing] + _r0[11,R3,Recover] = 0
 R224: - _f[69,Do_nothing] + _r0[69,Do_nothing,Do_nothing]
   + _r0[69,Do_nothing,Recover] = 0
 R225: - _f[69,R1] + _r0[69,R1,Do_nothing] + _r0[69,R1,Recover] = 0
 R226: - _f[69,R2] + _r0[69,R2,Do_nothing] + _r0[69,R2,Recover] = 0
 R227: - _f[69,R3] + _r0[69,R3,Do_nothing] + _r0[69,R3,Recover] = 0
 R228: - _f[12,Do_nothing] + _r0[12,Do_nothing,Do_nothing]
   + _r0[12,Do_nothing,Recover] = 0
 R229: - _f[12,R1] + _r0[12,R1,Do_nothing] + _r0[12,R1,Recover] = 0
 R230: - _f[12,R2] + _r0[12,R2,Do_nothing] + _r0[12,R2,Recover] = 0
 R231: - _f[12,R3] + _r0[12,R3,Do_nothing] + _r0[12,R3,Recover] = 0
 R232: - _f[87,Do_nothing] + _r0[87,Do_nothing,Do_nothing]
   + _r0[87,Do_nothing,Recover] = 0
 R233: - _f[87,R1] + _r0[87,R1,Do_nothing] + _r0[87,R1,Recover] = 0
 R234: - _f[87,R2] + _r0[87,R2,Do_nothing] + _r0[87,R2,Recover] = 0
 R235: - _f[87,R3] + _r0[87,R3,Do_nothing] + _r0[87,R3,Recover] = 0
 R236: - _f[123,Do_nothing] + _r0[123,Do_nothing,Do_nothing]
   + _r0[123,Do_nothing,Recover] = 0
 R237: - _f[123,R1] + _r0[123,R1,Do_nothing] + _r0[123,R1,Recover] = 0
 R238: - _f[123,R2] + _r0[123,R2,Do_nothing] + _r0[123,R2,Recover] = 0
 R239: - _f[123,R3] + _r0[123,R3,Do_nothing] + _r0[123,R3,Recover] = 0
 R240: - _f[148,Do_nothing] + _r0[148,Do_nothing,Do_nothing]
   + _r0[148,Do_nothing,Recover] = 0
 R241: - _f[148,R1] + _r0[148,R1,Do_nothing] + _r0[148,R1,Recover] = 0
 R242: - _f[148,R2] + _r0[148,R2,Do_nothing] + _r0[148,R2,Recover] = 0
 R243: - _f[148,R3] + _r0[148,R3,Do_nothing] + _r0[148,R3,Recover] = 0
 R244: - _f[41,Do_nothing] + _r0[41,Do_nothing,Do_nothing]
   + _r0[41,Do_nothing,Recover] = 0
 R245: - _f[41,R1] + _r0[41,R1,Do_nothing] + _r0[41,R1,Recover] = 0
 R246: - _f[41,R2] + _r0[41,R2,Do_nothing] + _r0[41,R2,Recover] = 0
 R247: - _f[41,R3] + _r0[41,R3,Do_nothing] + _r0[41,R3,Recover] = 0
 R248: - _f[106,Do_nothing] + _r0[106,Do_nothing,Do_nothing]
   + _r0[106,Do_nothing,Recover] = 0
 R249: - _f[106,R1] + _r0[106,R1,Do_nothing] + _r0[106,R1,Recover] = 0
 R250: - _f[106,R2] + _r0[106,R2,Do_nothing] + _r0[106,R2,Recover] = 0
 R251: - _f[106,R3] + _r0[106,R3,Do_nothing] + _r0[106,R3,Recover] = 0
 R252: - _f[34,Do_nothing] + _r0[34,Do_nothing,Do_nothing]
   + _r0[34,Do_nothing,Recover] = 0
 R253: - _f[34,R1] + _r0[34,R1,Do_nothing] + _r0[34,R1,Recover] = 0
 R254: - _f[34,R2] + _r0[34,R2,Do_nothing] + _r0[34,R2,Recover] = 0
 R255: - _f[34,R3] + _r0[34,R3,Do_nothing] + _r0[34,R3,Recover] = 0
 R256: - _f[114,Do_nothing] + _r0[114,Do_nothing,Do_nothing]
   + _r0[114,Do_nothing,Recover] = 0
 R257: - _f[114,R1] + _r0[114,R1,Do_nothing] + _r0[114,R1,Recover] = 0
 R258: - _f[114,R2] + _r0[114,R2,Do_nothing] + _r0[114,R2,Recover] = 0
 R259: - _f[114,R3] + _r0[114,R3,Do_nothing] + _r0[114,R3,Recover] = 0
 R260: - _f[47,Do_nothing] + _r0[47,Do_nothing,Do_nothing]
   + _r0[47,Do_nothing,Recover] = 0
 R261: - _f[47,R1] + _r0[47,R1,Do_nothing] + _r0[47,R1,Recover] = 0
 R262: - _f[47,R2] + _r0[47,R2,Do_nothing] + _r0[47,R2,Recover] = 0
 R263: - _f[47,R3] + _r0[47,R3,Do_nothing] + _r0[47,R3,Recover] = 0
 R264: - _f[75,Do_nothing] + _r0[75,Do_nothing,Do_nothing]
   + _r0[75,Do_nothing,Recover] = 0
 R265: - _f[75,R1] + _r0[75,R1,Do_nothing] + _r0[75,R1,Recover] = 0
 R266: - _f[75,R2] + _r0[75,R2,Do_nothing] + _r0[75,R2,Recover] = 0
 R267: - _f[75,R3] + _r0[75,R3,Do_nothing] + _r0[75,R3,Recover] = 0
 R268: - _f[119,Do_nothing] + _r0[119,Do_nothing,Do_nothing]
   + _r0[119,Do_nothing,Recover] = 0
 R269: - _f[119,R1] + _r0[119,R1,Do_nothing] + _r0[119,R1,Recover] = 0
 R270: - _f[119,R2] + _r0[119,R2,Do_nothing] + _r0[119,R2,Recover] = 0
 R271: - _f[119,R3] + _r0[119,R3,Do_nothing] + _r0[119,R3,Recover] = 0
 R272: - _f[28,Do_nothing] + _r0[28,Do_nothing,Do_nothing]
   + _r0[28,Do_nothing,Recover] = 0
 R273: - _f[28,R1] + _r0[28,R1,Do_nothing] + _r0[28,R1,Recover] = 0
 R274: - _f[28,R2] + _r0[28,R2,Do_nothing] + _r0[28,R2,Recover] = 0
 R275: - _f[28,R3] + _r0[28,R3,Do_nothing] + _r0[28,R3,Recover] = 0
 R276: - _f[93,Do_nothing] + _r0[93,Do_nothing,Do_nothing]
   + _r0[93,Do_nothing,Recover] = 0
 R277: - _f[93,R1] + _r0[93,R1,Do_nothing] + _r0[93,R1,Recover] = 0
 R278: - _f[93,R2] + _r0[93,R2,Do_nothing] + _r0[93,R2,Recover] = 0
 R279: - _f[93,R3] + _r0[93,R3,Do_nothing] + _r0[93,R3,Recover] = 0
 R280: - _f[59,Do_nothing] + _r0[59,Do_nothing,Do_nothing]
   + _r0[59,Do_nothing,Recover] = 0
 R281: - _f[59,R1] + _r0[59,R1,Do_nothing] + _r0[59,R1,Recover] = 0
 R282: - _f[59,R2] + _r0[59,R2,Do_nothing] + _r0[59,R2,Recover] = 0
 R283: - _f[59,R3] + _r0[59,R3,Do_nothing] + _r0[59,R3,Recover] = 0
 R284: - _f[90,Do_nothing] + _r0[90,Do_nothing,Do_nothing]
   + _r0[90,Do_nothing,Recover] = 0
 R285: - _f[90,R1] + _r0[90,R1,Do_nothing] + _r0[90,R1,Recover] = 0
 R286: - _f[90,R2] + _r0[90,R2,Do_nothing] + _r0[90,R2,Recover] = 0
 R287: - _f[90,R3] + _r0[90,R3,Do_nothing] + _r0[90,R3,Recover] = 0
 R288: - _f[95,Do_nothing] + _r0[95,Do_nothing,Do_nothing]
   + _r0[95,Do_nothing,Recover] = 0
 R289: - _f[95,R1] + _r0[95,R1,Do_nothing] + _r0[95,R1,Recover] = 0
 R290: - _f[95,R2] + _r0[95,R2,Do_nothing] + _r0[95,R2,Recover] = 0
 R291: - _f[95,R3] + _r0[95,R3,Do_nothing] + _r0[95,R3,Recover] = 0
 R292: - _f[3,Do_nothing] + _r0[3,Do_nothing,Do_nothing]
   + _r0[3,Do_nothing,Recover] = 0
 R293: - _f[3,R1] + _r0[3,R1,Do_nothing] + _r0[3,R1,Recover] = 0
 R294: - _f[3,R2] + _r0[3,R2,Do_nothing] + _r0[3,R2,Recover] = 0
 R295: - _f[3,R3] + _r0[3,R3,Do_nothing] + _r0[3,R3,Recover] = 0
 R296: - _f[82,Do_nothing] + _r0[82,Do_nothing,Do_nothing]
   + _r0[82,Do_nothing,Recover] = 0
 R297: - _f[82,R1] + _r0[82,R1,Do_nothing] + _r0[82,R1,Recover] = 0
 R298: - _f[82,R2] + _r0[82,R2,Do_nothing] + _r0[82,R2,Recover] = 0
 R299: - _f[82,R3] + _r0[82,R3,Do_nothing] + _r0[82,R3,Recover] = 0
 R300: - _f[72,Do_nothing] + _r0[72,Do_nothing,Do_nothing]
   + _r0[72,Do_nothing,Recover] = 0
 R301: - _f[72,R1] + _r0[72,R1,Do_nothing] + _r0[72,R1,Recover] = 0
 R302: - _f[72,R2] + _r0[72,R2,Do_nothing] + _r0[72,R2,Recover] = 0
 R303: - _f[72,R3] + _r0[72,R3,Do_nothing] + _r0[72,R3,Recover] = 0
 R304: - _f[46,Do_nothing] + _r0[46,Do_nothing,Do_nothing]
   + _r0[46,Do_nothing,Recover] = 0
 R305: - _f[46,R1] + _r0[46,R1,Do_nothing] + _r0[46,R1,Recover] = 0
 R306: - _f[46,R2] + _r0[46,R2,Do_nothing] + _r0[46,R2,Recover] = 0
 R307: - _f[46,R3] + _r0[46,R3,Do_nothing] + _r0[46,R3,Recover] = 0
 R308: - _f[33,Do_nothing] + _r0[33,Do_nothing,Do_nothing]
   + _r0[33,Do_nothing,Recover] = 0
 R309: - _f[33,R1] + _r0[33,R1,Do_nothing] + _r0[33,R1,Recover] = 0
 R310: - _f[33,R2] + _r0[33,R2,Do_nothing] + _r0[33,R2,Recover] = 0
 R311: - _f[33,R3] + _r0[33,R3,Do_nothing] + _r0[33,R3,Recover] = 0
 R312: - _f[116,Do_nothing] + _r0[116,Do_nothing,Do_nothing]
   + _r0[116,Do_nothing,Recover] = 0
 R313: - _f[116,R1] + _r0[116,R1,Do_nothing] + _r0[116,R1,Recover] = 0
 R314: - _f[116,R2] + _r0[116,R2,Do_nothing] + _r0[116,R2,Recover] = 0
 R315: - _f[116,R3] + _r0[116,R3,Do_nothing] + _r0[116,R3,Recover] = 0
 R316: - _f[13,Do_nothing] + _r0[13,Do_nothing,Do_nothing]
   + _r0[13,Do_nothing,Recover] = 0
 R317: - _f[13,R1] + _r0[13,R1,Do_nothing] + _r0[13,R1,Recover] = 0
 R318: - _f[13,R2] + _r0[13,R2,Do_nothing] + _r0[13,R2,Recover] = 0
 R319: - _f[13,R3] + _r0[13,R3,Do_nothing] + _r0[13,R3,Recover] = 0
 R320: - _f[104,Do_nothing] + _r0[104,Do_nothing,Do_nothing]
   + _r0[104,Do_nothing,Recover] = 0
 R321: - _f[104,R1] + _r0[104,R1,Do_nothing] + _r0[104,R1,Recover] = 0
 R322: - _f[104,R2] + _r0[104,R2,Do_nothing] + _r0[104,R2,Recover] = 0
 R323: - _f[104,R3] + _r0[104,R3,Do_nothing] + _r0[104,R3,Recover] = 0
 R324: - _f[130,Do_nothing] + _r0[130,Do_nothing,Do_nothing]
   + _r0[130,Do_nothing,Recover] = 0
 R325: - _f[130,R1] + _r0[130,R1,Do_nothing] + _r0[130,R1,Recover] = 0
 R326: - _f[130,R2] + _r0[130,R2,Do_nothing] + _r0[130,R2,Recover] = 0
 R327: - _f[130,R3] + _r0[130,R3,Do_nothing] + _r0[130,R3,Recover] = 0
 R328: - _f[139,Do_nothing] + _r0[139,Do_nothing,Do_nothing]
   + _r0[139,Do_nothing,Recover] = 0
 R329: - _f[139,R1] + _r0[139,R1,Do_nothing] + _r0[139,R1,Recover] = 0
 R330: - _f[139,R2] + _r0[139,R2,Do_nothing] + _r0[139,R2,Recover] = 0
 R331: - _f[139,R3] + _r0[139,R3,Do_nothing] + _r0[139,R3,Recover] = 0
 R332: - _f[36,Do_nothing] + _r0[36,Do_nothing,Do_nothing]
   + _r0[36,Do_nothing,Recover] = 0
 R333: - _f[36,R1] + _r0[36,R1,Do_nothing] + _r0[36,R1,Recover] = 0
 R334: - _f[36,R2] + _r0[36,R2,Do_nothing] + _r0[36,R2,Recover] = 0
 R335: - _f[36,R3] + _r0[36,R3,Do_nothing] + _r0[36,R3,Recover] = 0
 R336: - _f[25,Do_nothing] + _r0[25,Do_nothing,Do_nothing]
   + _r0[25,Do_nothing,Recover] = 0
 R337: - _f[25,R1] + _r0[25,R1,Do_nothing] + _r0[25,R1,Recover] = 0
 R338: - _f[25,R2] + _r0[25,R2,Do_nothing] + _r0[25,R2,Recover] = 0
 R339: - _f[25,R3] + _r0[25,R3,Do_nothing] + _r0[25,R3,Recover] = 0
 R340: - _f[64,Do_nothing] + _r0[64,Do_nothing,Do_nothing]
   + _r0[64,Do_nothing,Recover] = 0
 R341: - _f[64,R1] + _r0[64,R1,Do_nothing] + _r0[64,R1,Recover] = 0
 R342: - _f[64,R2] + _r0[64,R2,Do_nothing] + _r0[64,R2,Recover] = 0
 R343: - _f[64,R3] + _r0[64,R3,Do_nothing] + _r0[64,R3,Recover] = 0
 R344: - _f[110,Do_nothing] + _r0[110,Do_nothing,Do_nothing]
   + _r0[110,Do_nothing,Recover] = 0
 R345: - _f[110,R1] + _r0[110,R1,Do_nothing] + _r0[110,R1,Recover] = 0
 R346: - _f[110,R2] + _r0[110,R2,Do_nothing] + _r0[110,R2,Recover] = 0
 R347: - _f[110,R3] + _r0[110,R3,Do_nothing] + _r0[110,R3,Recover] = 0
 R348: - _f[10,Do_nothing] + _r0[10,Do_nothing,Do_nothing]
   + _r0[10,Do_nothing,Recover] = 0
 R349: - _f[10,R1] + _r0[10,R1,Do_nothing] + _r0[10,R1,Recover] = 0
 R350: - _f[10,R2] + _r0[10,R2,Do_nothing] + _r0[10,R2,Recover] = 0
 R351: - _f[10,R3] + _r0[10,R3,Do_nothing] + _r0[10,R3,Recover] = 0
 R352: - _f[7,Do_nothing] + _r0[7,Do_nothing,Do_nothing]
   + _r0[7,Do_nothing,Recover] = 0
 R353: - _f[7,R1] + _r0[7,R1,Do_nothing] + _r0[7,R1,Recover] = 0
 R354: - _f[7,R2] + _r0[7,R2,Do_nothing] + _r0[7,R2,Recover] = 0
 R355: - _f[7,R3] + _r0[7,R3,Do_nothing] + _r0[7,R3,Recover] = 0
 R356: - _f[80,Do_nothing] + _r0[80,Do_nothing,Do_nothing]
   + _r0[80,Do_nothing,Recover] = 0
 R357: - _f[80,R1] + _r0[80,R1,Do_nothing] + _r0[80,R1,Recover] = 0
 R358: - _f[80,R2] + _r0[80,R2,Do_nothing] + _r0[80,R2,Recover] = 0
 R359: - _f[80,R3] + _r0[80,R3,Do_nothing] + _r0[80,R3,Recover] = 0
 R360: - _f[124,Do_nothing] + _r0[124,Do_nothing,Do_nothing]
   + _r0[124,Do_nothing,Recover] = 0
 R361: - _f[124,R1] + _r0[124,R1,Do_nothing] + _r0[124,R1,Recover] = 0
 R362: - _f[124,R2] + _r0[124,R2,Do_nothing] + _r0[124,R2,Recover] = 0
 R363: - _f[124,R3] + _r0[124,R3,Do_nothing] + _r0[124,R3,Recover] = 0
 R364: - _f[127,Do_nothing] + _r0[127,Do_nothing,Do_nothing]
   + _r0[127,Do_nothing,Recover] = 0
 R365: - _f[127,R1] + _r0[127,R1,Do_nothing] + _r0[127,R1,Recover] = 0
 R366: - _f[127,R2] + _r0[127,R2,Do_nothing] + _r0[127,R2,Recover] = 0
 R367: - _f[127,R3] + _r0[127,R3,Do_nothing] + _r0[127,R3,Recover] = 0
 R368: - _f[40,Do_nothing] + _r0[40,Do_nothing,Do_nothing]
   + _r0[40,Do_nothing,Recover] = 0
 R369: - _f[40,R1] + _r0[40,R1,Do_nothing] + _r0[40,R1,Recover] = 0
 R370: - _f[40,R2] + _r0[40,R2,Do_nothing] + _r0[40,R2,Recover] = 0
 R371: - _f[40,R3] + _r0[40,R3,Do_nothing] + _r0[40,R3,Recover] = 0
 R372: - _f[103,Do_nothing] + _r0[103,Do_nothing,Do_nothing]
   + _r0[103,Do_nothing,Recover] = 0
 R373: - _f[103,R1] + _r0[103,R1,Do_nothing] + _r0[103,R1,Recover] = 0
 R374: - _f[103,R2] + _r0[103,R2,Do_nothing] + _r0[103,R2,Recover] = 0
 R375: - _f[103,R3] + _r0[103,R3,Do_nothing] + _r0[103,R3,Recover] = 0
 R376: - _f[118,Do_nothing] + _r0[118,Do_nothing,Do_nothing]
   + _r0[118,Do_nothing,Recover] = 0
 R377: - _f[118,R1] + _r0[118,R1,Do_nothing] + _r0[118,R1,Recover] = 0
 R378: - _f[118,R2] + _r0[118,R2,Do_nothing] + _r0[118,R2,Recover] = 0
 R379: - _f[118,R3] + _r0[118,R3,Do_nothing] + _r0[118,R3,Recover] = 0
 R380: - _f[136,Do_nothing] + _r0[136,Do_nothing,Do_nothing]
   + _r0[136,Do_nothing,Recover] = 0
 R381: - _f[136,R1] + _r0[136,R1,Do_nothing] + _r0[136,R1,Recover] = 0
 R382: - _f[136,R2] + _r0[136,R2,Do_nothing] + _r0[136,R2,Recover] = 0
 R383: - _f[136,R3] + _r0[136,R3,Do_nothing] + _r0[136,R3,Recover] = 0
 R384: - _f[65,Do_nothing] + _r0[65,Do_nothing,Do_nothing]
   + _r0[65,Do_nothing,Recover] = 0
 R385: - _f[65,R1] + _r0[65,R1,Do_nothing] + _r0[65,R1,Recover] = 0
 R386: - _f[65,R2] + _r0[65,R2,Do_nothing] + _r0[65,R2,Recover] = 0
 R387: - _f[65,R3] + _r0[65,R3,Do_nothing] + _r0[65,R3,Recover] = 0
 R388: - _f[62,Do_nothing] + _r0[62,Do_nothing,Do_nothing]
   + _r0[62,Do_nothing,Recover] = 0
 R389: - _f[62,R1] + _r0[62,R1,Do_nothing] + _r0[62,R1,Recover] = 0
 R390: - _f[62,R2] + _r0[62,R2,Do_nothing] + _r0[62,R2,Recover] = 0
 R391: - _f[62,R3] + _r0[62,R3,Do_nothing] + _r0[62,R3,Recover] = 0
 R392: - _f[125,Do_nothing] + _r0[125,Do_nothing,Do_nothing]
   + _r0[125,Do_nothing,Recover] = 0
 R393: - _f[125,R1] + _r0[125,R1,Do_nothing] + _r0[125,R1,Recover] = 0
 R394: - _f[125,R2] + _r0[125,R2,Do_nothing] + _r0[125,R2,Recover] = 0
 R395: - _f[125,R3] + _r0[125,R3,Do_nothing] + _r0[125,R3,Recover] = 0
 R396: - _f[60,Do_nothing] + _r0[60,Do_nothing,Do_nothing]
   + _r0[60,Do_nothing,Recover] = 0
 R397: - _f[60,R1] + _r0[60,R1,Do_nothing] + _r0[60,R1,Recover] = 0
 R398: - _f[60,R2] + _r0[60,R2,Do_nothing] + _r0[60,R2,Recover] = 0
 R399: - _f[60,R3] + _r0[60,R3,Do_nothing] + _r0[60,R3,Recover] = 0
 R400: - _f[17,Do_nothing] + _r0[17,Do_nothing,Do_nothing]
   + _r0[17,Do_nothing,Recover] = 0
 R401: - _f[17,R1] + _r0[17,R1,Do_nothing] + _r0[17,R1,Recover] = 0
 R402: - _f[17,R2] + _r0[17,R2,Do_nothing] + _r0[17,R2,Recover] = 0
 R403: - _f[17,R3] + _r0[17,R3,Do_nothing] + _r0[17,R3,Recover] = 0
 R404: - _f[53,Do_nothing] + _r0[53,Do_nothing,Do_nothing]
   + _r0[53,Do_nothing,Recover] = 0
 R405: - _f[53,R1] + _r0[53,R1,Do_nothing] + _r0[53,R1,Recover] = 0
 R406: - _f[53,R2] + _r0[53,R2,Do_nothing] + _r0[53,R2,Recover] = 0
 R407: - _f[53,R3] + _r0[53,R3,Do_nothing] + _r0[53,R3,Recover] = 0
 R408: - _f[131,Do_nothing] + _r0[131,Do_nothing,Do_nothing]
   + _r0[131,Do_nothing,Recover] = 0
 R409: - _f[131,R1] + _r0[131,R1,Do_nothing] + _r0[131,R1,Recover] = 0
 R410: - _f[131,R2] + _r0[131,R2,Do_nothing] + _r0[131,R2,Recover] = 0
 R411: - _f[131,R3] + _r0[131,R3,Do_nothing] + _r0[131,R3,Recover] = 0
 R412: - _f[55,Do_nothing] + _r0[55,Do_nothing,Do_nothing]
   + _r0[55,Do_nothing,Recover] = 0
 R413: - _f[55,R1] + _r0[55,R1,Do_nothing] + _r0[55,R1,Recover] = 0
 R414: - _f[55,R2] + _r0[55,R2,Do_nothing] + _r0[55,R2,Recover] = 0
 R415: - _f[55,R3] + _r0[55,R3,Do_nothing] + _r0[55,R3,Recover] = 0
 R416: - _f[58,Do_nothing] + _r0[58,Do_nothing,Do_nothing]
   + _r0[58,Do_nothing,Recover] = 0
 R417: - _f[58,R1] + _r0[58,R1,Do_nothing] + _r0[58,R1,Recover] = 0
 R418: - _f[58,R2] + _r0[58,R2,Do_nothing] + _r0[58,R2,Recover] = 0
 R419: - _f[58,R3] + _r0[58,R3,Do_nothing] + _r0[58,R3,Recover] = 0
 R420: - _f[107,Do_nothing] + _r0[107,Do_nothing,Do_nothing]
   + _r0[107,Do_nothing,Recover] = 0
 R421: - _f[107,R1] + _r0[107,R1,Do_nothing] + _r0[107,R1,Recover] = 0
 R422: - _f[107,R2] + _r0[107,R2,Do_nothing] + _r0[107,R2,Recover] = 0
 R423: - _f[107,R3] + _r0[107,R3,Do_nothing] + _r0[107,R3,Recover] = 0
 R424: - _f[4,Do_nothing] + _r0[4,Do_nothing,Do_nothing]
   + _r0[4,Do_nothing,Recover] = 0
 R425: - _f[4,R1] + _r0[4,R1,Do_nothing] + _r0[4,R1,Recover] = 0
 R426: - _f[4,R2] + _r0[4,R2,Do_nothing] + _r0[4,R2,Recover] = 0
 R427: - _f[4,R3] + _r0[4,R3,Do_nothing] + _r0[4,R3,Recover] = 0
 R428: - _f[149,Do_nothing] + _r0[149,Do_nothing,Do_nothing]
   + _r0[149,Do_nothing,Recover] = 0
 R429: - _f[149,R1] + _r0[149,R1,Do_nothing] + _r0[149,R1,Recover] = 0
 R430: - _f[149,R2] + _r0[149,R2,Do_nothing] + _r0[149,R2,Recover] = 0
 R431: - _f[149,R3] + _r0[149,R3,Do_nothing] + _r0[149,R3,Recover] = 0
 R432: - _f[63,Do_nothing] + _r0[63,Do_nothing,Do_nothing]
   + _r0[63,Do_nothing,Recover] = 0
 R433: - _f[63,R1] + _r0[63,R1,Do_nothing] + _r0[63,R1,Recover] = 0
 R434: - _f[63,R2] + _r0[63,R2,Do_nothing] + _r0[63,R2,Recover] = 0
 R435: - _f[63,R3] + _r0[63,R3,Do_nothing] + _r0[63,R3,Recover] = 0
 R436: - _f[57,Do_nothing] + _r0[57,Do_nothing,Do_nothing]
   + _r0[57,Do_nothing,Recover] = 0
 R437: - _f[57,R1] + _r0[57,R1,Do_nothing] + _r0[57,R1,Recover] = 0
 R438: - _f[57,R2] + _r0[57,R2,Do_nothing] + _r0[57,R2,Recover] = 0
 R439: - _f[57,R3] + _r0[57,R3,Do_nothing] + _r0[57,R3,Recover] = 0
 R440: - _f[23,Do_nothing] + _r0[23,Do_nothing,Do_nothing]
   + _r0[23,Do_nothing,Recover] = 0
 R441: - _f[23,R1] + _r0[23,R1,Do_nothing] + _r0[23,R1,Recover] = 0
 R442: - _f[23,R2] + _r0[23,R2,Do_nothing] + _r0[23,R2,Recover] = 0
 R443: - _f[23,R3] + _r0[23,R3,Do_nothing] + _r0[23,R3,Recover] = 0
 R444: - _f[117,Do_nothing] + _r0[117,Do_nothing,Do_nothing]
   + _r0[117,Do_nothing,Recover] = 0
 R445: - _f[117,R1] + _r0[117,R1,Do_nothing] + _r0[117,R1,Recover] = 0
 R446: - _f[117,R2] + _r0[117,R2,Do_nothing] + _r0[117,R2,Recover] = 0
 R447: - _f[117,R3] + _r0[117,R3,Do_nothing] + _r0[117,R3,Recover] = 0
 R448: - _f[108,Do_nothing] + _r0[108,Do_nothing,Do_nothing]
   + _r0[108,Do_nothing,Recover] = 0
 R449: - _f[108,R1] + _r0[108,R1,Do_nothing] + _r0[108,R1,Recover] = 0
 R450: - _f[108,R2] + _r0[108,R2,Do_nothing] + _r0[108,R2,Recover] = 0
 R451: - _f[108,R3] + _r0[108,R3,Do_nothing] + _r0[108,R3,Recover] = 0
 R452: - _f[138,Do_nothing] + _r0[138,Do_nothing,Do_nothing]
   + _r0[138,Do_nothing,Recover] = 0
 R453: - _f[138,R1] + _r0[138,R1,Do_nothing] + _r0[138,R1,Recover] = 0
 R454: - _f[138,R2] + _r0[138,R2,Do_nothing] + _r0[138,R2,Recover] = 0
 R455: - _f[138,R3] + _r0[138,R3,Do_nothing] + _r0[138,R3,Recover] = 0
 R456: - _f[6,Do_nothing] + _r0[6,Do_nothing,Do_nothing]
   + _r0[6,Do_nothing,Recover] = 0
 R457: - _f[6,R1] + _r0[6,R1,Do_nothing] + _r0[6,R1,Recover] = 0
 R458: - _f[6,R2] + _r0[6,R2,Do_nothing] + _r0[6,R2,Recover] = 0
 R459: - _f[6,R3] + _r0[6,R3,Do_nothing] + _r0[6,R3,Recover] = 0
 R460: - _f[86,Do_nothing] + _r0[86,Do_nothing,Do_nothing]
   + _r0[86,Do_nothing,Recover] = 0
 R461: - _f[86,R1] + _r0[86,R1,Do_nothing] + _r0[86,R1,Recover] = 0
 R462: - _f[86,R2] + _r0[86,R2,Do_nothing] + _r0[86,R2,Recover] = 0
 R463: - _f[86,R3] + _r0[86,R3,Do_nothing] + _r0[86,R3,Recover] = 0
 R464: - _f[121,Do_nothing] + _r0[121,Do_nothing,Do_nothing]
   + _r0[121,Do_nothing,Recover] = 0
 R465: - _f[121,R1] + _r0[121,R1,Do_nothing] + _r0[121,R1,Recover] = 0
 R466: - _f[121,R2] + _r0[121,R2,Do_nothing] + _r0[121,R2,Recover] = 0
 R467: - _f[121,R3] + _r0[121,R3,Do_nothing] + _r0[121,R3,Recover] = 0
 R468: - _f[145,Do_nothing] + _r0[145,Do_nothing,Do_nothing]
   + _r0[145,Do_nothing,Recover] = 0
 R469: - _f[145,R1] + _r0[145,R1,Do_nothing] + _r0[145,R1,Recover] = 0
 R470: - _f[145,R2] + _r0[145,R2,Do_nothing] + _r0[145,R2,Recover] = 0
 R471: - _f[145,R3] + _r0[145,R3,Do_nothing] + _r0[145,R3,Recover] = 0
 R472: - _f[99,Do_nothing] + _r0[99,Do_nothing,Do_nothing]
   + _r0[99,Do_nothing,Recover] = 0
 R473: - _f[99,R1] + _r0[99,R1,Do_nothing] + _r0[99,R1,Recover] = 0
 R474: - _f[99,R2] + _r0[99,R2,Do_nothing] + _r0[99,R2,Recover] = 0
 R475: - _f[99,R3] + _r0[99,R3,Do_nothing] + _r0[99,R3,Recover] = 0
 R476: - _f[21,Do_nothing] + _r0[21,Do_nothing,Do_nothing]
   + _r0[21,Do_nothing,Recover] = 0
 R477: - _f[21,R1] + _r0[21,R1,Do_nothing] + _r0[21,R1,Recover] = 0
 R478: - _f[21,R2] + _r0[21,R2,Do_nothing] + _r0[21,R2,Recover] = 0
 R479: - _f[21,R3] + _r0[21,R3,Do_nothing] + _r0[21,R3,Recover] = 0
 R480: - _f[42,Do_nothing] + _r0[42,Do_nothing,Do_nothing]
   + _r0[42,Do_nothing,Recover] = 0
 R481: - _f[42,R1] + _r0[42,R1,Do_nothing] + _r0[42,R1,Recover] = 0
 R482: - _f[42,R2] + _r0[42,R2,Do_nothing] + _r0[42,R2,Recover] = 0
 R483: - _f[42,R3] + _r0[42,R3,Do_nothing] + _r0[42,R3,Recover] = 0
 R484: - _f[98,Do_nothing] + _r0[98,Do_nothing,Do_nothing]
   + _r0[98,Do_nothing,Recover] = 0
 R485: - _f[98,R1] + _r0[98,R1,Do_nothing] + _r0[98,R1,Recover] = 0
 R486: - _f[98,R2] + _r0[98,R2,Do_nothing] + _r0[98,R2,Recover] = 0
 R487: - _f[98,R3] + _r0[98,R3,Do_nothing] + _r0[98,R3,Recover] = 0
 R488: - _f[100,Do_nothing] + _r0[100,Do_nothing,Do_nothing]
   + _r0[100,Do_nothing,Recover] = 0
 R489: - _f[100,R1] + _r0[100,R1,Do_nothing] + _r0[100,R1,Recover] = 0
 R490: - _f[100,R2] + _r0[100,R2,Do_nothing] + _r0[100,R2,Recover] = 0
 R491: - _f[100,R3] + _r0[100,R3,Do_nothing] + _r0[100,R3,Recover] = 0
 R492: - _f[76,Do_nothing] + _r0[76,Do_nothing,Do_nothing]
   + _r0[76,Do_nothing,Recover] = 0
 R493: - _f[76,R1] + _r0[76,R1,Do_nothing] + _r0[76,R1,Recover] = 0
 R494: - _f[76,R2] + _r0[76,R2,Do_nothing] + _r0[76,R2,Recover] = 0
 R495: - _f[76,R3] + _r0[76,R3,Do_nothing] + _r0[76,R3,Recover] = 0
 R496: - _f[102,Do_nothing] + _r0[102,Do_nothing,Do_nothing]
   + _r0[102,Do_nothing,Recover] = 0
 R497: - _f[102,R1] + _r0[102,R1,Do_nothing] + _r0[102,R1,Recover] = 0
 R498: - _f[102,R2] + _r0[102,R2,Do_nothing] + _r0[102,R2,Recover] = 0
 R499: - _f[102,R3] + _r0[102,R3,Do_nothing] + _r0[102,R3,Recover] = 0
 R500: - _f[141,Do_nothing] + _r0[141,Do_nothing,Do_nothing]
   + _r0[141,Do_nothing,Recover] = 0
 R501: - _f[141,R1] + _r0[141,R1,Do_nothing] + _r0[141,R1,Recover] = 0
 R502: - _f[141,R2] + _r0[141,R2,Do_nothing] + _r0[141,R2,Recover] = 0
 R503: - _f[141,R3] + _r0[141,R3,Do_nothing] + _r0[141,R3,Recover] = 0
 R504: - _f[146,Do_nothing] + _r0[146,Do_nothing,Do_nothing]
   + _r0[146,Do_nothing,Recover] = 0
 R505: - _f[146,R1] + _r0[146,R1,Do_nothing] + _r0[146,R1,Recover] = 0
 R506: - _f[146,R2] + _r0[146,R2,Do_nothing] + _r0[146,R2,Recover] = 0
 R507: - _f[146,R3] + _r0[146,R3,Do_nothing] + _r0[146,R3,Recover] = 0
 R508: - _f[94,Do_nothing] + _r0[94,Do_nothing,Do_nothing]
   + _r0[94,Do_nothing,Recover] = 0
 R509: - _f[94,R1] + _r0[94,R1,Do_nothing] + _r0[94,R1,Recover] = 0
 R510: - _f[94,R2] + _r0[94,R2,Do_nothing] + _r0[94,R2,Recover] = 0
 R511: - _f[94,R3] + _r0[94,R3,Do_nothing] + _r0[94,R3,Recover] = 0
 R512: - _f[79,Do_nothing] + _r0[79,Do_nothing,Do_nothing]
   + _r0[79,Do_nothing,Recover] = 0
 R513: - _f[79,R1] + _r0[79,R1,Do_nothing] + _r0[79,R1,Recover] = 0
 R514: - _f[79,R2] + _r0[79,R2,Do_nothing] + _r0[79,R2,Recover] = 0
 R515: - _f[79,R3] + _r0[79,R3,Do_nothing] + _r0[79,R3,Recover] = 0
 R516: - _f[2,Do_nothing] + _r0[2,Do_nothing,Do_nothing]
   + _r0[2,Do_nothing,Recover] = 0
 R517: - _f[2,R1] + _r0[2,R1,Do_nothing] + _r0[2,R1,Recover] = 0
 R518: - _f[2,R2] + _r0[2,R2,Do_nothing] + _r0[2,R2,Recover] = 0
 R519: - _f[2,R3] + _r0[2,R3,Do_nothing] + _r0[2,R3,Recover] = 0
 R520: - _f[140,Do_nothing] + _r0[140,Do_nothing,Do_nothing]
   + _r0[140,Do_nothing,Recover] = 0
 R521: - _f[140,R1] + _r0[140,R1,Do_nothing] + _r0[140,R1,Recover] = 0
 R522: - _f[140,R2] + _r0[140,R2,Do_nothing] + _r0[140,R2,Recover] = 0
 R523: - _f[140,R3] + _r0[140,R3,Do_nothing] + _r0[140,R3,Recover] = 0
 R524: - _f[77,Do_nothing] + _r0[77,Do_nothing,Do_nothing]
   + _r0[77,Do_nothing,Recover] = 0
 R525: - _f[77,R1] + _r0[77,R1,Do_nothing] + _r0[77,R1,Recover] = 0
 R526: - _f[77,R2] + _r0[77,R2,Do_nothing] + _r0[77,R2,Recover] = 0
 R527: - _f[77,R3] + _r0[77,R3,Do_nothing] + _r0[77,R3,Recover] = 0
 R528: - _f[24,Do_nothing] + _r0[24,Do_nothing,Do_nothing]
   + _r0[24,Do_nothing,Recover] = 0
 R529: - _f[24,R1] + _r0[24,R1,Do_nothing] + _r0[24,R1,Recover] = 0
 R530: - _f[24,R2] + _r0[24,R2,Do_nothing] + _r0[24,R2,Recover] = 0
 R531: - _f[24,R3] + _r0[24,R3,Do_nothing] + _r0[24,R3,Recover] = 0
 R532: - _f[66,Do_nothing] + _r0[66,Do_nothing,Do_nothing]
   + _r0[66,Do_nothing,Recover] = 0
 R533: - _f[66,R1] + _r0[66,R1,Do_nothing] + _r0[66,R1,Recover] = 0
 R534: - _f[66,R2] + _r0[66,R2,Do_nothing] + _r0[66,R2,Recover] = 0
 R535: - _f[66,R3] + _r0[66,R3,Do_nothing] + _r0[66,R3,Recover] = 0
 R536: - _f[8,Do_nothing] + _r0[8,Do_nothing,Do_nothing]
   + _r0[8,Do_nothing,Recover] = 0
 R537: - _f[8,R1] + _r0[8,R1,Do_nothing] + _r0[8,R1,Recover] = 0
 R538: - _f[8,R2] + _r0[8,R2,Do_nothing] + _r0[8,R2,Recover] = 0
 R539: - _f[8,R3] + _r0[8,R3,Do_nothing] + _r0[8,R3,Recover] = 0
 R540: - _f[43,Do_nothing] + _r0[43,Do_nothing,Do_nothing]
   + _r0[43,Do_nothing,Recover] = 0
 R541: - _f[43,R1] + _r0[43,R1,Do_nothing] + _r0[43,R1,Recover] = 0
 R542: - _f[43,R2] + _r0[43,R2,Do_nothing] + _r0[43,R2,Recover] = 0
 R543: - _f[43,R3] + _r0[43,R3,Do_nothing] + _r0[43,R3,Recover] = 0
 R544: - _f[74,Do_nothing] + _r0[74,Do_nothing,Do_nothing]
   + _r0[74,Do_nothing,Recover] = 0
 R545: - _f[74,R1] + _r0[74,R1,Do_nothing] + _r0[74,R1,Recover] = 0
 R546: - _f[74,R2] + _r0[74,R2,Do_nothing] + _r0[74,R2,Recover] = 0
 R547: - _f[74,R3] + _r0[74,R3,Do_nothing] + _r0[74,R3,Recover] = 0
 R548: - _f[35,Do_nothing] + _r0[35,Do_nothing,Do_nothing]
   + _r0[35,Do_nothing,Recover] = 0
 R549: - _f[35,R1] + _r0[35,R1,Do_nothing] + _r0[35,R1,Recover] = 0
 R550: - _f[35,R2] + _r0[35,R2,Do_nothing] + _r0[35,R2,Recover] = 0
 R551: - _f[35,R3] + _r0[35,R3,Do_nothing] + _r0[35,R3,Recover] = 0
 R552: - _f[26,Do_nothing] + _r0[26,Do_nothing,Do_nothing]
   + _r0[26,Do_nothing,Recover] = 0
 R553: - _f[26,R1] + _r0[26,R1,Do_nothing] + _r0[26,R1,Recover] = 0
 R554: - _f[26,R2] + _r0[26,R2,Do_nothing] + _r0[26,R2,Recover] = 0
 R555: - _f[26,R3] + _r0[26,R3,Do_nothing] + _r0[26,R3,Recover] = 0
 R556: - _f[15,Do_nothing] + _r0[15,Do_nothing,Do_nothing]
   + _r0[15,Do_nothing,Recover] = 0
 R557: - _f[15,R1] + _r0[15,R1,Do_nothing] + _r0[15,R1,Recover] = 0
 R558: - _f[15,R2] + _r0[15,R2,Do_nothing] + _r0[15,R2,Recover] = 0
 R559: - _f[15,R3] + _r0[15,R3,Do_nothing] + _r0[15,R3,Recover] = 0
 R560: - _f[56,Do_nothing] + _r0[56,Do_nothing,Do_nothing]
   + _r0[56,Do_nothing,Recover] = 0
 R561: - _f[56,R1] + _r0[56,R1,Do_nothing] + _r0[56,R1,Recover] = 0
 R562: - _f[56,R2] + _r0[56,R2,Do_nothing] + _r0[56,R2,Recover] = 0
 R563: - _f[56,R3] + _r0[56,R3,Do_nothing] + _r0[56,R3,Recover] = 0
 R564: - _f[88,Do_nothing] + _r0[88,Do_nothing,Do_nothing]
   + _r0[88,Do_nothing,Recover] = 0
 R565: - _f[88,R1] + _r0[88,R1,Do_nothing] + _r0[88,R1,Recover] = 0
 R566: - _f[88,R2] + _r0[88,R2,Do_nothing] + _r0[88,R2,Recover] = 0
 R567: - _f[88,R3] + _r0[88,R3,Do_nothing] + _r0[88,R3,Recover] = 0
 R568: - _f[142,Do_nothing] + _r0[142,Do_nothing,Do_nothing]
   + _r0[142,Do_nothing,Recover] = 0
 R569: - _f[142,R1] + _r0[142,R1,Do_nothing] + _r0[142,R1,Recover] = 0
 R570: - _f[142,R2] + _r0[142,R2,Do_nothing] + _r0[142,R2,Recover] = 0
 R571: - _f[142,R3] + _r0[142,R3,Do_nothing] + _r0[142,R3,Recover] = 0
 R572: - _f[113,Do_nothing] + _r0[113,Do_nothing,Do_nothing]
   + _r0[113,Do_nothing,Recover] = 0
 R573: - _f[113,R1] + _r0[113,R1,Do_nothing] + _r0[113,R1,Recover] = 0
 R574: - _f[113,R2] + _r0[113,R2,Do_nothing] + _r0[113,R2,Recover] = 0
 R575: - _f[113,R3] + _r0[113,R3,Do_nothing] + _r0[113,R3,Recover] = 0
 R576: - _f[52,Do_nothing] + _r0[52,Do_nothing,Do_nothing]
   + _r0[52,Do_nothing,Recover] = 0
 R577: - _f[52,R1] + _r0[52,R1,Do_nothing] + _r0[52,R1,Recover] = 0
 R578: - _f[52,R2] + _r0[52,R2,Do_nothing] + _r0[52,R2,Recover] = 0
 R579: - _f[52,R3] + _r0[52,R3,Do_nothing] + _r0[52,R3,Recover] = 0
 R580: - _f[37,Do_nothing] + _r0[37,Do_nothing,Do_nothing]
   + _r0[37,Do_nothing,Recover] = 0
 R581: - _f[37,R1] + _r0[37,R1,Do_nothing] + _r0[37,R1,Recover] = 0
 R582: - _f[37,R2] + _r0[37,R2,Do_nothing] + _r0[37,R2,Recover] = 0
 R583: - _f[37,R3] + _r0[37,R3,Do_nothing] + _r0[37,R3,Recover] = 0
 R584: - _f[78,Do_nothing] + _r0[78,Do_nothing,Do_nothing]
   + _r0[78,Do_nothing,Recover] = 0
 R585: - _f[78,R1] + _r0[78,R1,Do_nothing] + _r0[78,R1,Recover] = 0
 R586: - _f[78,R2] + _r0[78,R2,Do_nothing] + _r0[78,R2,Recover] = 0
 R587: - _f[78,R3] + _r0[78,R3,Do_nothing] + _r0[78,R3,Recover] = 0
 R588: - _f[132,Do_nothing] + _r0[132,Do_nothing,Do_nothing]
   + _r0[132,Do_nothing,Recover] = 0
 R589: - _f[132,R1] + _r0[132,R1,Do_nothing] + _r0[132,R1,Recover] = 0
 R590: - _f[132,R2] + _r0[132,R2,Do_nothing] + _r0[132,R2,Recover] = 0
 R591: - _f[132,R3] + _r0[132,R3,Do_nothing] + _r0[132,R3,Recover] = 0
 R592: - _f[50,Do_nothing] + _r0[50,Do_nothing,Do_nothing]
   + _r0[50,Do_nothing,Recover] = 0
 R593: - _f[50,R1] + _r0[50,R1,Do_nothing] + _r0[50,R1,Recover] = 0
 R594: - _f[50,R2] + _r0[50,R2,Do_nothing] + _r0[50,R2,Recover] = 0
 R595: - _f[50,R3] + _r0[50,R3,Do_nothing] + _r0[50,R3,Recover] = 0
 R596: - _f[144,Do_nothing] + _r0[144,Do_nothing,Do_nothing]
   + _r0[144,Do_nothing,Recover] = 0
 R597: - _f[144,R1] + _r0[144,R1,Do_nothing] + _r0[144,R1,Recover] = 0
 R598: - _f[144,R2] + _r0[144,R2,Do_nothing] + _r0[144,R2,Recover] = 0
 R599: - _f[144,R3] + _r0[144,R3,Do_nothing] + _r0[144,R3,Recover] = 0
 R600: - _f[96,Do_nothing] + _r0[96,Do_nothing,Do_nothing]
   + _r0[96,Do_nothing,Recover] = 0
 R601: - _f[96,R1] + _r0[96,R1,Do_nothing] + _r0[96,R1,Recover] = 0
 R602: - _f[96,R2] + _r0[96,R2,Do_nothing] + _r0[96,R2,Recover] = 0
 R603: - _f[96,R3] + _r0[96,R3,Do_nothing] + _r0[96,R3,Recover] = 0
 R604: - _f[120,Do_nothing] + _r0[120,Do_nothing,Do_nothing]
   + _r0[120,Do_nothing,Recover] = 0
 R605: - _f[120,R1] + _r0[120,R1,Do_nothing] + _r0[120,R1,Recover] = 0
 R606: - _f[120,R2] + _r0[120,R2,Do_nothing] + _r0[120,R2,Recover] = 0
 R607: - _f[120,R3] + _r0[120,R3,Do_nothing] + _r0[120,R3,Recover] = 0
 R608: - _f[22,Do_nothing] + _r0[22,Do_nothing,Do_nothing]
   + _r0[22,Do_nothing,Recover] = 0
 R609: - _f[22,R1] + _r0[22,R1,Do_nothing] + _r0[22,R1,Recover] = 0
 R610: - _f[22,R2] + _r0[22,R2,Do_nothing] + _r0[22,R2,Recover] = 0
 R611: - _f[22,R3] + _r0[22,R3,Do_nothing] + _r0[22,R3,Recover] = 0
 R612: - _f[84,Do_nothing] + _r0[84,Do_nothing,Do_nothing]
   + _r0[84,Do_nothing,Recover] = 0
 R613: - _f[84,R1] + _r0[84,R1,Do_nothing] + _r0[84,R1,Recover] = 0
 R614: - _f[84,R2] + _r0[84,R2,Do_nothing] + _r0[84,R2,Recover] = 0
 R615: - _f[84,R3] + _r0[84,R3,Do_nothing] + _r0[84,R3,Recover] = 0
 R616: - _f[85,Do_nothing] + _r0[85,Do_nothing,Do_nothing]
   + _r0[85,Do_nothing,Recover] = 0
 R617: - _f[85,R1] + _r0[85,R1,Do_nothing] + _r0[85,R1,Recover] = 0
 R618: - _f[85,R2] + _r0[85,R2,Do_nothing] + _r0[85,R2,Recover] = 0
 R619: - _f[85,R3] + _r0[85,R3,Do_nothing] + _r0[85,R3,Recover] = 0
 R620: - _f[16,Do_nothing] + _r0[16,Do_nothing,Do_nothing]
   + _r0[16,Do_nothing,Recover] = 0
 R621: - _f[16,R1] + _r0[16,R1,Do_nothing] + _r0[16,R1,Recover] = 0
 R622: - _f[16,R2] + _r0[16,R2,Do_nothing] + _r0[16,R2,Recover] = 0
 R623: - _f[16,R3] + _r0[16,R3,Do_nothing] + _r0[16,R3,Recover] = 0
 R624: - _f[20,Do_nothing] + _r0[20,Do_nothing,Do_nothing]
   + _r0[20,Do_nothing,Recover] = 0
 R625: - _f[20,R1] + _r0[20,R1,Do_nothing] + _r0[20,R1,Recover] = 0
 R626: - _f[20,R2] + _r0[20,R2,Do_nothing] + _r0[20,R2,Recover] = 0
 R627: - _f[20,R3] + _r0[20,R3,Do_nothing] + _r0[20,R3,Recover] = 0
 R628: - _f[128,Do_nothing] + _r0[128,Do_nothing,Do_nothing]
   + _r0[128,Do_nothing,Recover] = 0
 R629: - _f[128,R1] + _r0[128,R1,Do_nothing] + _r0[128,R1,Recover] = 0
 R630: - _f[128,R2] + _r0[128,R2,Do_nothing] + _r0[128,R2,Recover] = 0
 R631: - _f[128,R3] + _r0[128,R3,Do_nothing] + _r0[128,R3,Recover] = 0
 R632: - _f[54,Do_nothing] + _r0[54,Do_nothing,Do_nothing]
   + _r0[54,Do_nothing,Recover] = 0
 R633: - _f[54,R1] + _r0[54,R1,Do_nothing] + _r0[54,R1,Recover] = 0
 R634: - _f[54,R2] + _r0[54,R2,Do_nothing] + _r0[54,R2,Recover] = 0
 R635: - _f[54,R3] + _r0[54,R3,Do_nothing] + _r0[54,R3,Recover] = 0
 R636: - _f[29,Do_nothing] + _r0[29,Do_nothing,Do_nothing]
   + _r0[29,Do_nothing,Recover] = 0
 R637: - _f[29,R1] + _r0[29,R1,Do_nothing] + _r0[29,R1,Recover] = 0
 R638: - _f[29,R2] + _r0[29,R2,Do_nothing] + _r0[29,R2,Recover] = 0
 R639: - _f[29,R3] + _r0[29,R3,Do_nothing] + _r0[29,R3,Recover] = 0
 R640: - _f[14,Do_nothing] + _r0[14,Do_nothing,Do_nothing]
   + _r0[14,Do_nothing,Recover] = 0
 R641: - _f[14,R1] + _r0[14,R1,Do_nothing] + _r0[14,R1,Recover] = 0
 R642: - _f[14,R2] + _r0[14,R2,Do_nothing] + _r0[14,R2,Recover] = 0
 R643: - _f[14,R3] + _r0[14,R3,Do_nothing] + _r0[14,R3,Recover] = 0
 R644: - _f[38,Do_nothing] + _r0[38,Do_nothing,Do_nothing]
   + _r0[38,Do_nothing,Recover] = 0
 R645: - _f[38,R1] + _r0[38,R1,Do_nothing] + _r0[38,R1,Recover] = 0
 R646: - _f[38,R2] + _r0[38,R2,Do_nothing] + _r0[38,R2,Recover] = 0
 R647: - _f[38,R3] + _r0[38,R3,Do_nothing] + _r0[38,R3,Recover] = 0
 R648: - _f[70,Do_nothing] + _r0[70,Do_nothing,Do_nothing]
   + _r0[70,Do_nothing,Recover] = 0
 R649: - _f[70,R1] + _r0[70,R1,Do_nothing] + _r0[70,R1,Recover] = 0
 R650: - _f[70,R2] + _r0[70,R2,Do_nothing] + _r0[70,R2,Recover] = 0
 R651: - _f[70,R3] + _r0[70,R3,Do_nothing] + _r0[70,R3,Recover] = 0
 R652: - _f[143,Do_nothing] + _r0[143,Do_nothing,Do_nothing]
   + _r0[143,Do_nothing,Recover] = 0
 R653: - _f[143,R1] + _r0[143,R1,Do_nothing] + _r0[143,R1,Recover] = 0
 R654: - _f[143,R2] + _r0[143,R2,Do_nothing] + _r0[143,R2,Recover] = 0
 R655: - _f[143,R3] + _r0[143,R3,Do_nothing] + _r0[143,R3,Recover] = 0
 R656: - _f[48,Do_nothing] + _r0[48,Do_nothing,Do_nothing]
   + _r0[48,Do_nothing,Recover] = 0
 R657: - _f[48,R1] + _r0[48,R1,Do_nothing] + _r0[48,R1,Recover] = 0
 R658: - _f[48,R2] + _r0[48,R2,Do_nothing] + _r0[48,R2,Recover] = 0
 R659: - _f[48,R3] + _r0[48,R3,Do_nothing] + _r0[48,R3,Recover] = 0
 R660: - _f[112,Do_nothing] + _r0[112,Do_nothing,Do_nothing]
   + _r0[112,Do_nothing,Recover] = 0
 R661: - _f[112,R1] + _r0[112,R1,Do_nothing] + _r0[112,R1,Recover] = 0
 R662: - _f[112,R2] + _r0[112,R2,Do_nothing] + _r0[112,R2,Recover] = 0
 R663: - _f[112,R3] + _r0[112,R3,Do_nothing] + _r0[112,R3,Recover] = 0
 R664: - _f[89,Do_nothing] + _r0[89,Do_nothing,Do_nothing]
   + _r0[89,Do_nothing,Recover] = 0
 R665: - _f[89,R1] + _r0[89,R1,Do_nothing] + _r0[89,R1,Recover] = 0
 R666: - _f[89,R2] + _r0[89,R2,Do_nothing] + _r0[89,R2,Recover] = 0
 R667: - _f[89,R3] + _r0[89,R3,Do_nothing] + _r0[89,R3,Recover] = 0
 R668: - _f[129,Do_nothing] + _r0[129,Do_nothing,Do_nothing]
   + _r0[129,Do_nothing,Recover] = 0
 R669: - _f[129,R1] + _r0[129,R1,Do_nothing] + _r0[129,R1,Recover] = 0
 R670: - _f[129,R2] + _r0[129,R2,Do_nothing] + _r0[129,R2,Recover] = 0
 R671: - _f[129,R3] + _r0[129,R3,Do_nothing] + _r0[129,R3,Recover] = 0
 R672: - _f[68,Do_nothing] + _r0[68,Do_nothing,Do_nothing]
   + _r0[68,Do_nothing,Recover] = 0
 R673: - _f[68,R1] + _r0[68,R1,Do_nothing] + _r0[68,R1,Recover] = 0
 R674: - _f[68,R2] + _r0[68,R2,Do_nothing] + _r0[68,R2,Recover] = 0
 R675: - _f[68,R3] + _r0[68,R3,Do_nothing] + _r0[68,R3,Recover] = 0
 R676: - _f[115,Do_nothing] + _r0[115,Do_nothing,Do_nothing]
   + _r0[115,Do_nothing,Recover] = 0
 R677: - _f[115,R1] + _r0[115,R1,Do_nothing] + _r0[115,R1,Recover] = 0
 R678: - _f[115,R2] + _r0[115,R2,Do_nothing] + _r0[115,R2,Recover] = 0
 R679: - _f[115,R3] + _r0[115,R3,Do_nothing] + _r0[115,R3,Recover] = 0
 R680: - _f[111,Do_nothing] + _r0[111,Do_nothing,Do_nothing]
   + _r0[111,Do_nothing,Recover] = 0
 R681: - _f[111,R1] + _r0[111,R1,Do_nothing] + _r0[111,R1,Recover] = 0
 R682: - _f[111,R2] + _r0[111,R2,Do_nothing] + _r0[111,R2,Recover] = 0
 R683: - _f[111,R3] + _r0[111,R3,Do_nothing] + _r0[111,R3,Recover] = 0
 R684: - _f[9,Do_nothing] + _r0[9,Do_nothing,Do_nothing]
   + _r0[9,Do_nothing,Recover] = 0
 R685: - _f[9,R1] + _r0[9,R1,Do_nothing] + _r0[9,R1,Recover] = 0
 R686: - _f[9,R2] + _r0[9,R2,Do_nothing] + _r0[9,R2,Recover] = 0
 R687: - _f[9,R3] + _r0[9,R3,Do_nothing] + _r0[9,R3,Recover] = 0
 R688: - _f[30,Do_nothing] + _r0[30,Do_nothing,Do_nothing]
   + _r0[30,Do_nothing,Recover] = 0
 R689: - _f[30,R1] + _r0[30,R1,Do_nothing] + _r0[30,R1,Recover] = 0
 R690: - _f[30,R2] + _r0[30,R2,Do_nothing] + _r0[30,R2,Recover] = 0
 R691: - _f[30,R3] + _r0[30,R3,Do_nothing] + _r0[30,R3,Recover] = 0
 R692: - _f[5,Do_nothing] + _r0[5,Do_nothing,Do_nothing]
   + _r0[5,Do_nothing,Recover] = 0
 R693: - _f[5,R1] + _r0[5,R1,Do_nothing] + _r0[5,R1,Recover] = 0
 R694: - _f[5,R2] + _r0[5,R2,Do_nothing] + _r0[5,R2,Recover] = 0
 R695: - _f[5,R3] + _r0[5,R3,Do_nothing] + _r0[5,R3,Recover] = 0
 R696: - _f[67,Do_nothing] + _r0[67,Do_nothing,Do_nothing]
   + _r0[67,Do_nothing,Recover] = 0
 R697: - _f[67,R1] + _r0[67,R1,Do_nothing] + _r0[67,R1,Recover] = 0
 R698: - _f[67,R2] + _r0[67,R2,Do_nothing] + _r0[67,R2,Recover] = 0
 R699: - _f[67,R3] + _r0[67,R3,Do_nothing] + _r0[67,R3,Recover] = 0
 R700: - _f[92,Do_nothing] + _r0[92,Do_nothing,Do_nothing]
   + _r0[92,Do_nothing,Recover] = 0
 R701: - _f[92,R1] + _r0[92,R1,Do_nothing] + _r0[92,R1,Recover] = 0
 R702: - _f[92,R2] + _r0[92,R2,Do_nothing] + _r0[92,R2,Recover] = 0
 R703: - _f[92,R3] + _r0[92,R3,Do_nothing] + _r0[92,R3,Recover] = 0
 R704: - _f[122,Do_nothing] + _r0[122,Do_nothing,Do_nothing]
   + _r0[122,Do_nothing,Recover] = 0
 R705: - _f[122,R1] + _r0[122,R1,Do_nothing] + _r0[122,R1,Recover] = 0
 R706: - _f[122,R2] + _r0[122,R2,Do_nothing] + _r0[122,R2,Recover] = 0
 R707: - _f[122,R3] + _r0[122,R3,Do_nothing] + _r0[122,R3,Recover] = 0
 R708: - _f[133,Do_nothing] + _r0[133,Do_nothing,Do_nothing]
   + _r0[133,Do_nothing,Recover] = 0
 R709: - _f[133,R1] + _r0[133,R1,Do_nothing] + _r0[133,R1,Recover] = 0
 R710: - _f[133,R2] + _r0[133,R2,Do_nothing] + _r0[133,R2,Recover] = 0
 R711: - _f[133,R3] + _r0[133,R3,Do_nothing] + _r0[133,R3,Recover] = 0
 R712: - _f[135,Do_nothing] + _r0[135,Do_nothing,Do_nothing]
   + _r0[135,Do_nothing,Recover] = 0
 R713: - _f[135,R1] + _r0[135,R1,Do_nothing] + _r0[135,R1,Recover] = 0
 R714: - _f[135,R2] + _r0[135,R2,Do_nothing] + _r0[135,R2,Recover] = 0
 R715: - _f[135,R3] + _r0[135,R3,Do_nothing] + _r0[135,R3,Recover] = 0
 R716: - _f[73,Do_nothing] + _r0[73,Do_nothing,Do_nothing]
   + _r0[73,Do_nothing,Recover] = 0
 R717: - _f[73,R1] + _r0[73,R1,Do_nothing] + _r0[73,R1,Recover] = 0
 R718: - _f[73,R2] + _r0[73,R2,Do_nothing] + _r0[73,R2,Recover] = 0
 R719: - _f[73,R3] + _r0[73,R3,Do_nothing] + _r0[73,R3,Recover] = 0
 R720: - _f[27,Do_nothing] + _r0[27,Do_nothing,Do_nothing]
   + _r0[27,Do_nothing,Recover] = 0
 R721: - _f[27,R1] + _r0[27,R1,Do_nothing] + _r0[27,R1,Recover] = 0
 R722: - _f[27,R2] + _r0[27,R2,Do_nothing] + _r0[27,R2,Recover] = 0
 R723: - _f[27,R3] + _r0[27,R3,Do_nothing] + _r0[27,R3,Recover] = 0
 R724: - _f[32,Do_nothing] + _r0[32,Do_nothing,Do_nothing]
   + _r0[32,Do_nothing,Recover] = 0
 R725: - _f[32,R1] + _r0[32,R1,Do_nothing] + _r0[32,R1,Recover] = 0
 R726: - _f[32,R2] + _r0[32,R2,Do_nothing] + _r0[32,R2,Recover] = 0
 R727: - _f[32,R3] + _r0[32,R3,Do_nothing] + _r0[32,R3,Recover] = 0
 R728: - _f[18,Do_nothing] + _r0[18,Do_nothing,Do_nothing]
   + _r0[18,Do_nothing,Recover] = 0
 R729: - _f[18,R1] + _r0[18,R1,Do_nothing] + _r0[18,R1,Recover] = 0
 R730: - _f[18,R2] + _r0[18,R2,Do_nothing] + _r0[18,R2,Recover] = 0
 R731: - _f[18,R3] + _r0[18,R3,Do_nothing] + _r0[18,R3,Recover] = 0
 R732: - _f[45,Do_nothing] + _r0[45,Do_nothing,Do_nothing]
   + _r0[45,Do_nothing,Recover] = 0
 R733: - _f[45,R1] + _r0[45,R1,Do_nothing] + _r0[45,R1,Recover] = 0
 R734: - _f[45,R2] + _r0[45,R2,Do_nothing] + _r0[45,R2,Recover] = 0
 R735: - _f[45,R3] + _r0[45,R3,Do_nothing] + _r0[45,R3,Recover] = 0
 R736: - _f[91,Do_nothing] + _r0[91,Do_nothing,Do_nothing]
   + _r0[91,Do_nothing,Recover] = 0
 R737: - _f[91,R1] + _r0[91,R1,Do_nothing] + _r0[91,R1,Recover] = 0
 R738: - _f[91,R2] + _r0[91,R2,Do_nothing] + _r0[91,R2,Recover] = 0
 R739: - _f[91,R3] + _r0[91,R3,Do_nothing] + _r0[91,R3,Recover] = 0
 R740: - _f[101,Do_nothing] + _r0[101,Do_nothing,Do_nothing]
   + _r0[101,Do_nothing,Recover] = 0
 R741: - _f[101,R1] + _r0[101,R1,Do_nothing] + _r0[101,R1,Recover] = 0
 R742: - _f[101,R2] + _r0[101,R2,Do_nothing] + _r0[101,R2,Recover] = 0
 R743: - _f[101,R3] + _r0[101,R3,Do_nothing] + _r0[101,R3,Recover] = 0
 R744: - _f[49,Do_nothing] + _r0[49,Do_nothing,Do_nothing]
   + _r0[49,Do_nothing,Recover] = 0
 R745: - _f[49,R1] + _r0[49,R1,Do_nothing] + _r0[49,R1,Recover] = 0
 R746: - _f[49,R2] + _r0[49,R2,Do_nothing] + _r0[49,R2,Recover] = 0
 R747: - _f[49,R3] + _r0[49,R3,Do_nothing] + _r0[49,R3,Recover] = 0
 R748: - _f[83,Do_nothing] + _r0[83,Do_nothing,Do_nothing]
   + _r0[83,Do_nothing,Recover] = 0
 R749: - _f[83,R1] + _r0[83,R1,Do_nothing] + _r0[83,R1,Recover] = 0
 R750: - _f[83,R2] + _r0[83,R2,Do_nothing] + _r0[83,R2,Recover] = 0
 R751: - _f[83,R3] + _r0[83,R3,Do_nothing] + _r0[83,R3,Recover] = 0
 R752: _Theta - 55 _r1[105,Do_nothing,Do_nothing]
   - 55 _r1[105,Do_nothing,Recover] - 55 _r1[105,R1,Do_nothing]
   - 55 _r1[105,R1,Recover] - 49 _r1[105,R2,Do_nothing]
   - 42 _r1[105,R2,Recover] - 46 _r1[105,R3,Do_nothing]
   - 35 _r1[105,R3,Recover] - 389 _r1[150,Do_nothing,Do_nothing]
   - 386 _r1[150,Do_nothing,Recover] - 389 _r1[150,R1,Do_nothing]
   - 386 _r1[150,R1,Recover] - 344 _r1[150,R2,Do_nothing]
   - 295 _r1[150,R2,Recover] - 320 _r1[150,R3,Do_nothing]
   - 246 _r1[150,R3,Recover] - 258 _r1[61,Do_nothing,Do_nothing]
   - 255 _r1[61,Do_nothing,Recover] - 258 _r1[61,R1,Do_nothing]
   - 255 _r1[61,R1,Recover] - 227 _r1[61,R2,Do_nothing]
   - 195 _r1[61,R2,Recover] - 212 _r1[61,R3,Do_nothing]
   - 163 _r1[61,R3,Recover] - 376 _r1[1,Do_nothing,Do_nothing]
   - 372 _r1[1,Do_nothing,Recover] - 376 _r1[1,R1,Do_nothing]
   - 372 _r1[1,R1,Recover] - 332 _r1[1,R2,Do_nothing]
   - 284 _r1[1,R2,Recover] - 308 _r1[1,R3,Do_nothing]
   - 238 _r1[1,R3,Recover] - 249 _r1[51,Do_nothing,Do_nothing]
   - 246 _r1[51,Do_nothing,Recover] - 249 _r1[51,R1,Do_nothing]
   - 246 _r1[51,R1,Recover] - 220 _r1[51,R2,Do_nothing]
   - 188 _r1[51,R2,Recover] - 204 _r1[51,R3,Do_nothing]
   - 157 _r1[51,R3,Recover] - 474 _r1[97,Do_nothing,Do_nothing]
   - 469 _r1[97,Do_nothing,Recover] - 474 _r1[97,R1,Do_nothing]
   - 469 _r1[97,R1,Recover] - 418 _r1[97,R2,Do_nothing]
   - 358 _r1[97,R2,Recover] - 389 _r1[97,R3,Do_nothing]
   - 300 _r1[97,R3,Recover] - 745 _r1[87,Do_nothing,Do_nothing]
   - 738 _r1[87,Do_nothing,Recover] - 745 _r1[87,R1,Do_nothing]
   - 738 _r1[87,R1,Recover] - 658 _r1[87,R2,Do_nothing]
   - 564 _r1[87,R2,Recover] - 612 _r1[87,R3,Do_nothing]
   - 472 _r1[87,R3,Recover] - 295 _r1[148,Do_nothing,Do_nothing]
   - 293 _r1[148,Do_nothing,Recover] - 295 _r1[148,R1,Do_nothing]
   - 293 _r1[148,R1,Recover] - 261 _r1[148,R2,Do_nothing]
   - 223 _r1[148,R2,Recover] - 242 _r1[148,R3,Do_nothing]
   - 187 _r1[148,R3,Recover] - 316 _r1[41,Do_nothing,Do_nothing]
   - 313 _r1[41,Do_nothing,Recover] - 316 _r1[41,R1,Do_nothing]
   - 313 _r1[41,R1,Recover] - 279 _r1[41,R2,Do_nothing]
   - 239 _r1[41,R2,Recover] - 260 _r1[41,R3,Do_nothing]
   - 200 _r1[41,R3,Recover] - 554 _r1[75,Do_nothing,Do_nothing]
   - 549 _r1[75,Do_nothing,Recover] - 554 _r1[75,R1,Do_nothing]
   - 549 _r1[75,R1,Recover] - 489 _r1[75,R2,Do_nothing]
   - 419 _r1[75,R2,Recover] - 455 _r1[75,R3,Do_nothing]
   - 351 _r1[75,R3,Recover] - 394 _r1[119,Do_nothing,Do_nothing]
   - 391 _r1[119,Do_nothing,Recover] - 394 _r1[119,R1,Do_nothing]
   - 391 _r1[119,R1,Recover] - 348 _r1[119,R2,Do_nothing]
   - 298 _r1[119,R2,Recover] - 324 _r1[119,R3,Do_nothing]
   - 250 _r1[119,R3,Recover] - 776 _r1[90,Do_nothing,Do_nothing]
   - 769 _r1[90,Do_nothing,Recover] - 776 _r1[90,R1,Do_nothing]
   - 769 _r1[90,R1,Recover] - 685 _r1[90,R2,Do_nothing]
   - 587 _r1[90,R2,Recover] - 637 _r1[90,R3,Do_nothing]
   - 491 _r1[90,R3,Recover] - 692 _r1[95,Do_nothing,Do_nothing]
   - 685 _r1[95,Do_nothing,Recover] - 692 _r1[95,R1,Do_nothing]
   - 685 _r1[95,R1,Recover] - 611 _r1[95,R2,Do_nothing]
   - 523 _r1[95,R2,Recover] - 568 _r1[95,R3,Do_nothing]
   - 438 _r1[95,R3,Recover] - 448 _r1[3,Do_nothing,Do_nothing]
   - 444 _r1[3,Do_nothing,Recover] - 448 _r1[3,R1,Do_nothing]
   - 444 _r1[3,R1,Recover] - 395 _r1[3,R2,Do_nothing]
   - 339 _r1[3,R2,Recover] - 368 _r1[3,R3,Do_nothing]
   - 283 _r1[3,R3,Recover] - 852 _r1[36,Do_nothing,Do_nothing]
   - 845 _r1[36,Do_nothing,Recover] - 852 _r1[36,R1,Do_nothing]
   - 844 _r1[36,R1,Recover] - 752 _r1[36,R2,Do_nothing]
   - 645 _r1[36,R2,Recover] - 700 _r1[36,R3,Do_nothing]
   - 539 _r1[36,R3,Recover] - 615 _r1[110,Do_nothing,Do_nothing]
   - 610 _r1[110,Do_nothing,Recover] - 615 _r1[110,R1,Do_nothing]
   - 610 _r1[110,R1,Recover] - 543 _r1[110,R2,Do_nothing]
   - 465 _r1[110,R2,Recover] - 505 _r1[110,R3,Do_nothing]
   - 389 _r1[110,R3,Recover] - 538 _r1[40,Do_nothing,Do_nothing]
   - 533 _r1[40,Do_nothing,Recover] - 538 _r1[40,R1,Do_nothing]
   - 533 _r1[40,R1,Recover] - 475 _r1[40,R2,Do_nothing]
   - 407 _r1[40,R2,Recover] - 442 _r1[40,R3,Do_nothing]
   - 341 _r1[40,R3,Recover] - 498 _r1[103,Do_nothing,Do_nothing]
   - 494 _r1[103,Do_nothing,Recover] - 498 _r1[103,R1,Do_nothing]
   - 494 _r1[103,R1,Recover] - 440 _r1[103,R2,Do_nothing]
   - 377 _r1[103,R2,Recover] - 409 _r1[103,R3,Do_nothing]
   - 315 _r1[103,R3,Recover] - 641 _r1[17,Do_nothing,Do_nothing]
   - 635 _r1[17,Do_nothing,Recover] - 641 _r1[17,R1,Do_nothing]
   - 635 _r1[17,R1,Recover] - 566 _r1[17,R2,Do_nothing]
   - 485 _r1[17,R2,Recover] - 526 _r1[17,R3,Do_nothing]
   - 406 _r1[17,R3,Recover] - 321 _r1[57,Do_nothing,Do_nothing]
   - 318 _r1[57,Do_nothing,Recover] - 321 _r1[57,R1,Do_nothing]
   - 318 _r1[57,R1,Recover] - 283 _r1[57,R2,Do_nothing]
   - 243 _r1[57,R2,Recover] - 264 _r1[57,R3,Do_nothing]
   - 203 _r1[57,R3,Recover] - 495 _r1[138,Do_nothing,Do_nothing]
   - 491 _r1[138,Do_nothing,Recover] - 495 _r1[138,R1,Do_nothing]
   - 491 _r1[138,R1,Recover] - 437 _r1[138,R2,Do_nothing]
   - 375 _r1[138,R2,Recover] - 407 _r1[138,R3,Do_nothing]
   - 314 _r1[138,R3,Recover] - 708 _r1[121,Do_nothing,Do_nothing]
   - 701 _r1[121,Do_nothing,Recover] - 708 _r1[121,R1,Do_nothing]
   - 701 _r1[121,R1,Recover] - 628 _r1[121,R2,Do_nothing]
   - 541 _r1[121,R2,Recover] - 586 _r1[121,R3,Do_nothing]
   - 458 _r1[121,R3,Recover] - 1143 _r1[76,Do_nothing,Do_nothing]
   - 1132 _r1[76,Do_nothing,Recover] - 1143 _r1[76,R1,Do_nothing]
   - 1132 _r1[76,R1,Recover] - 1009 _r1[76,R2,Do_nothing]
   - 864 _r1[76,R2,Recover] - 938 _r1[76,R3,Do_nothing]
   - 723 _r1[76,R3,Recover] - 766 _r1[2,Do_nothing,Do_nothing]
   - 759 _r1[2,Do_nothing,Recover] - 766 _r1[2,R1,Do_nothing]
   - 759 _r1[2,R1,Recover] - 676 _r1[2,R2,Do_nothing]
   - 579 _r1[2,R2,Recover] - 629 _r1[2,R3,Do_nothing]
   - 485 _r1[2,R3,Recover] - 617 _r1[88,Do_nothing,Do_nothing]
   - 612 _r1[88,Do_nothing,Recover] - 617 _r1[88,R1,Do_nothing]
   - 612 _r1[88,R1,Recover] - 545 _r1[88,R2,Do_nothing]
   - 467 _r1[88,R2,Recover] - 507 _r1[88,R3,Do_nothing]
   - 391 _r1[88,R3,Recover] - 382 _r1[22,Do_nothing,Do_nothing]
   - 378 _r1[22,Do_nothing,Recover] - 382 _r1[22,R1,Do_nothing]
   - 378 _r1[22,R1,Recover] - 337 _r1[22,R2,Do_nothing]
   - 289 _r1[22,R2,Recover] - 313 _r1[22,R3,Do_nothing]
   - 241 _r1[22,R3,Recover] - 554 _r1[84,Do_nothing,Do_nothing]
   - 549 _r1[84,Do_nothing,Recover] - 554 _r1[84,R1,Do_nothing]
   - 549 _r1[84,R1,Recover] - 489 _r1[84,R2,Do_nothing]
   - 419 _r1[84,R2,Recover] - 455 _r1[84,R3,Do_nothing]
   - 351 _r1[84,R3,Recover] - 314 _r1[85,Do_nothing,Do_nothing]
   - 311 _r1[85,Do_nothing,Recover] - 314 _r1[85,R1,Do_nothing]
   - 311 _r1[85,R1,Recover] - 277 _r1[85,R2,Do_nothing]
   - 238 _r1[85,R2,Recover] - 258 _r1[85,R3,Do_nothing]
   - 199 _r1[85,R3,Recover] - 406 _r1[112,Do_nothing,Do_nothing]
   - 403 _r1[112,Do_nothing,Recover] - 406 _r1[112,R1,Do_nothing]
   - 403 _r1[112,R1,Recover] - 359 _r1[112,R2,Do_nothing]
   - 307 _r1[112,R2,Recover] - 334 _r1[112,R3,Do_nothing]
   - 257 _r1[112,R3,Recover] - 454 _r1[5,Do_nothing,Do_nothing]
   - 450 _r1[5,Do_nothing,Recover] - 454 _r1[5,R1,Do_nothing]
   - 450 _r1[5,R1,Recover] - 401 _r1[5,R2,Do_nothing]
   - 343 _r1[5,R2,Recover] - 373 _r1[5,R3,Do_nothing]
   - 287 _r1[5,R3,Recover] - 387 _r1[122,Do_nothing,Do_nothing]
   - 384 _r1[122,Do_nothing,Recover] - 387 _r1[122,R1,Do_nothing]
   - 384 _r1[122,R1,Recover] - 342 _r1[122,R2,Do_nothing]
   - 293 _r1[122,R2,Recover] - 318 _r1[122,R3,Do_nothing]
   - 245 _r1[122,R3,Recover] - 267 _r1[18,Do_nothing,Do_nothing]
   - 264 _r1[18,Do_nothing,Recover] - 267 _r1[18,R1,Do_nothing]
   - 264 _r1[18,R1,Recover] - 235 _r1[18,R2,Do_nothing]
   - 202 _r1[18,R2,Recover] - 219 _r1[18,R3,Do_nothing]
   - 169 _r1[18,R3,Recover] - 10 _r1[83,Do_nothing,Do_nothing]
   - 10 _r1[83,Do_nothing,Recover] - 10 _r1[83,R1,Do_nothing]
   - 10 _r1[83,R1,Recover] - 9 _r1[83,R2,Do_nothing] - 7 _r1[83,R2,Recover]
   - 8 _r1[83,R3,Do_nothing] - 6 _r1[83,R3,Recover] >= 0
 R753: 12783 _f[105,R1] + 16065 _f[105,R2] + 28837 _f[105,R3]
   + 119355 _f[19,R1] + 150005 _f[19,R2] + 269255 _f[19,R3]
   + 52807 _f[150,R1] + 66368 _f[150,R2] + 119127 _f[150,R3]
   + 77012 _f[61,R1] + 96789 _f[61,R2] + 173733 _f[61,R3] + 4530 _f[109,R1]
   + 5693 _f[109,R2] + 10219 _f[109,R3] + 33367 _f[126,R1]
   + 41937 _f[126,R2] + 75275 _f[126,R3] + 19605 _f[137,R1]
   + 24639 _f[137,R2] + 44226 _f[137,R3] + 83838 _f[31,R1]
   + 105366 _f[31,R2] + 189129 _f[31,R3] + 78072 _f[1,R1] + 98122 _f[1,R2]
   + 176124 _f[1,R3] + 59472 _f[51,R1] + 74746 _f[51,R2] + 134166 _f[51,R3]
   + 218782 _f[39,R1] + 274961 _f[39,R2] + 493551 _f[39,R3]
   + 141757 _f[81,R1] + 178158 _f[81,R2] + 319790 _f[81,R3]
   + 42729 _f[147,R1] + 53701 _f[147,R2] + 96395 _f[147,R3]
   + 87553 _f[44,R1] + 110037 _f[44,R2] + 197517 _f[44,R3]
   + 125910 _f[97,R1] + 158240 _f[97,R2] + 284041 _f[97,R3]
   + 98829 _f[71,R1] + 124207 _f[71,R2] + 222949 _f[71,R3]
   + 43363 _f[134,R1] + 54501 _f[134,R2] + 97827 _f[134,R3]
   + 118033 _f[11,R1] + 148342 _f[11,R2] + 266266 _f[11,R3]
   + 234977 _f[69,R1] + 304934 _f[69,R2] + 547351 _f[69,R3]
   + 62789 _f[12,R1] + 78911 _f[12,R2] + 141647 _f[12,R3] + 64516 _f[87,R1]
   + 81081 _f[87,R2] + 145540 _f[87,R3] + 48511 _f[123,R1]
   + 60967 _f[123,R2] + 109435 _f[123,R3] + 58602 _f[148,R1]
   + 73648 _f[148,R2] + 132194 _f[148,R3] + 167956 _f[41,R1]
   + 211084 _f[41,R2] + 378891 _f[41,R3] + 136344 _f[106,R1]
   + 171354 _f[106,R2] + 307578 _f[106,R3] + 51241 _f[34,R1]
   + 64400 _f[34,R2] + 115596 _f[34,R3] + 30518 _f[114,R1]
   + 38354 _f[114,R2] + 68844 _f[114,R3] + 51926 _f[47,R1]
   + 65263 _f[47,R2] + 117143 _f[47,R3] + 83720 _f[75,R1]
   + 105218 _f[75,R2] + 188867 _f[75,R3] + 62388 _f[119,R1]
   + 78411 _f[119,R2] + 140748 _f[119,R3] + 89269 _f[28,R1]
   + 112195 _f[28,R2] + 201388 _f[28,R3] + 9047 _f[93,R1] + 11369 _f[93,R2]
   + 20408 _f[93,R3] + 34888 _f[59,R1] + 43846 _f[59,R2] + 78703 _f[59,R3]
   + 112492 _f[90,R1] + 141377 _f[90,R2] + 253769 _f[90,R3]
   + 124502 _f[95,R1] + 156473 _f[95,R2] + 280867 _f[95,R3]
   + 59082 _f[3,R1] + 74256 _f[3,R2] + 133286 _f[3,R3] + 66697 _f[82,R1]
   + 83825 _f[82,R2] + 150463 _f[82,R3] + 67226 _f[72,R1] + 84491 _f[72,R2]
   + 151658 _f[72,R3] + 106163 _f[46,R1] + 133423 _f[46,R2]
   + 239491 _f[46,R3] + 157590 _f[33,R1] + 198060 _f[33,R2]
   + 355513 _f[33,R3] + 56019 _f[116,R1] + 70403 _f[116,R2]
   + 126375 _f[116,R3] + 80416 _f[13,R1] + 101066 _f[13,R2]
   + 181408 _f[13,R3] + 149800 _f[104,R1] + 188268 _f[104,R2]
   + 337936 _f[104,R3] + 128105 _f[130,R1] + 161001 _f[130,R2]
   + 288996 _f[130,R3] + 102323 _f[139,R1] + 128599 _f[139,R2]
   + 230830 _f[139,R3] + 225577 _f[36,R1] + 283506 _f[36,R2]
   + 508886 _f[36,R3] + 76086 _f[25,R1] + 95624 _f[25,R2]
   + 171642 _f[25,R3] + 55674 _f[64,R1] + 69969 _f[64,R2]
   + 125591 _f[64,R3] + 135857 _f[110,R1] + 170740 _f[110,R2]
   + 306476 _f[110,R3] + 100317 _f[10,R1] + 126077 _f[10,R2]
   + 226309 _f[10,R3] + 107163 _f[7,R1] + 134681 _f[7,R2] + 241751 _f[7,R3]
   + 565884 _f[80,R1] + 711200 _f[80,R2] + 1.276589e+06 _f[80,R3]
   + 76304 _f[124,R1] + 95898 _f[124,R2] + 172133 _f[124,R3]
   + 75815 _f[127,R1] + 95286 _f[127,R2] + 171036 _f[127,R3]
   + 81174 _f[40,R1] + 102018 _f[40,R2] + 183121 _f[40,R3]
   + 84815 _f[103,R1] + 106593 _f[103,R2] + 191334 _f[103,R3]
   + 110402 _f[118,R1] + 138749 _f[118,R2] + 249057 _f[118,R3]
   + 84842 _f[136,R1] + 106625 _f[136,R2] + 191391 _f[136,R3]
   + 32262 _f[65,R1] + 40547 _f[65,R2] + 72782 _f[65,R3] + 39060 _f[62,R1]
   + 49089 _f[62,R2] + 88115 _f[62,R3] + 14599 _f[125,R1]
   + 18348 _f[125,R2] + 32935 _f[125,R3] + 21608 _f[60,R1]
   + 27157 _f[60,R2] + 48746 _f[60,R3] + 88993 _f[17,R1] + 111849 _f[17,R2]
   + 200765 _f[17,R3] + 51639 _f[53,R1] + 64896 _f[53,R2]
   + 116486 _f[53,R3] + 39506 _f[131,R1] + 49652 _f[131,R2]
   + 89123 _f[131,R3] + 15197 _f[55,R1] + 19099 _f[55,R2] + 34283 _f[55,R3]
   + 132683 _f[58,R1] + 166753 _f[58,R2] + 299316 _f[58,R3]
   + 110878 _f[107,R1] + 139353 _f[107,R2] + 250134 _f[107,R3]
   + 64337 _f[4,R1] + 80857 _f[4,R2] + 145140 _f[4,R3] + 36782 _f[149,R1]
   + 46226 _f[149,R2] + 82973 _f[149,R3] + 26752 _f[63,R1]
   + 33620 _f[63,R2] + 60346 _f[63,R3] + 81912 _f[57,R1] + 102946 _f[57,R2]
   + 184785 _f[57,R3] + 20113 _f[23,R1] + 25278 _f[23,R2] + 45373 _f[23,R3]
   + 31860 _f[117,R1] + 40041 _f[117,R2] + 71873 _f[117,R3]
   + 20551 _f[108,R1] + 25828 _f[108,R2] + 46361 _f[108,R3]
   + 96932 _f[138,R1] + 121822 _f[138,R2] + 218669 _f[138,R3]
   + 86660 _f[6,R1] + 108913 _f[6,R2] + 195495 _f[6,R3] + 54229 _f[86,R1]
   + 68153 _f[86,R2] + 122333 _f[86,R3] + 228689 _f[121,R1]
   + 302398 _f[121,R2] + 542797 _f[121,R3] + 73723 _f[145,R1]
   + 92655 _f[145,R2] + 166313 _f[145,R3] + 42139 _f[99,R1]
   + 52961 _f[99,R2] + 95064 _f[99,R3] + 79097 _f[21,R1] + 99407 _f[21,R2]
   + 178431 _f[21,R3] + 44546 _f[42,R1] + 55984 _f[42,R2]
   + 100491 _f[42,R3] + 73070 _f[98,R1] + 91835 _f[98,R2]
   + 164838 _f[98,R3] + 46415 _f[100,R1] + 58335 _f[100,R2]
   + 104709 _f[100,R3] + 274727 _f[76,R1] + 345277 _f[76,R2]
   + 619764 _f[76,R3] + 76890 _f[102,R1] + 96637 _f[102,R2]
   + 173460 _f[102,R3] + 20783 _f[141,R1] + 26119 _f[141,R2]
   + 46884 _f[141,R3] + 97308 _f[146,R1] + 122296 _f[146,R2]
   + 219520 _f[146,R3] + 72592 _f[94,R1] + 91237 _f[94,R2]
   + 163768 _f[94,R3] + 70968 _f[79,R1] + 89192 _f[79,R2]
   + 160099 _f[79,R3] + 250389 _f[2,R1] + 314685 _f[2,R2] + 564856 _f[2,R3]
   + 335071 _f[140,R1] + 421116 _f[140,R2] + 755894 _f[140,R3]
   + 76017 _f[77,R1] + 95536 _f[77,R2] + 171486 _f[77,R3]
   + 120732 _f[24,R1] + 151737 _f[24,R2] + 272364 _f[24,R3]
   + 67768 _f[66,R1] + 85171 _f[66,R2] + 152877 _f[66,R3] + 83193 _f[8,R1]
   + 104557 _f[8,R2] + 187677 _f[8,R3] + 48970 _f[43,R1] + 61546 _f[43,R2]
   + 110472 _f[43,R3] + 93039 _f[74,R1] + 116931 _f[74,R2]
   + 209888 _f[74,R3] + 144336 _f[35,R1] + 181402 _f[35,R2]
   + 325614 _f[35,R3] + 69852 _f[26,R1] + 87791 _f[26,R2]
   + 157582 _f[26,R3] + 64472 _f[15,R1] + 81027 _f[15,R2]
   + 145441 _f[15,R3] + 59677 _f[56,R1] + 75000 _f[56,R2]
   + 134625 _f[56,R3] + 103252 _f[88,R1] + 129767 _f[88,R2]
   + 232930 _f[88,R3] + 65411 _f[142,R1] + 82207 _f[142,R2]
   + 147561 _f[142,R3] + 161383 _f[113,R1] + 202821 _f[113,R2]
   + 364065 _f[113,R3] + 48565 _f[52,R1] + 61038 _f[52,R2]
   + 109562 _f[52,R3] + 118658 _f[37,R1] + 149128 _f[37,R2]
   + 267682 _f[37,R3] + 98826 _f[78,R1] + 124202 _f[78,R2]
   + 222941 _f[78,R3] + 78434 _f[132,R1] + 98576 _f[132,R2]
   + 176941 _f[132,R3] + 35904 _f[50,R1] + 45122 _f[50,R2]
   + 80994 _f[50,R3] + 179180 _f[144,R1] + 225192 _f[144,R2]
   + 404214 _f[144,R3] + 62173 _f[96,R1] + 78136 _f[96,R2]
   + 140250 _f[96,R3] + 95722 _f[120,R1] + 161089 _f[120,R2]
   + 289151 _f[120,R3] + 78468 _f[22,R1] + 98614 _f[22,R2]
   + 177011 _f[22,R3] + 783157 _f[84,R1] + 984264 _f[84,R2]
   + 1.766736e+06 _f[84,R3] + 60614 _f[85,R1] + 76179 _f[85,R2]
   + 136742 _f[85,R3] + 16884 _f[16,R1] + 21219 _f[16,R2] + 38087 _f[16,R3]
   + 42013 _f[20,R1] + 52801 _f[20,R2] + 94777 _f[20,R3] + 43338 _f[128,R1]
   + 54466 _f[128,R2] + 97765 _f[128,R3] + 200216 _f[54,R1]
   + 251629 _f[54,R2] + 451670 _f[54,R3] + 52951 _f[29,R1]
   + 66548 _f[29,R2] + 119449 _f[29,R3] + 65871 _f[14,R1] + 82786 _f[14,R2]
   + 148598 _f[14,R3] + 140670 _f[38,R1] + 176794 _f[38,R2]
   + 317336 _f[38,R3] + 154749 _f[70,R1] + 194488 _f[70,R2]
   + 349102 _f[70,R3] + 871346 _f[143,R1] + 1.0951e+06 _f[143,R2]
   + 1.965685e+06 _f[143,R3] + 94724 _f[48,R1] + 119051 _f[48,R2]
   + 213693 _f[48,R3] + 87606 _f[112,R1] + 110102 _f[112,R2]
   + 197631 _f[112,R3] + 141209 _f[89,R1] + 177472 _f[89,R2]
   + 318557 _f[89,R3] + 115499 _f[129,R1] + 145158 _f[129,R2]
   + 260556 _f[129,R3] + 36509 _f[68,R1] + 45884 _f[68,R2]
   + 82361 _f[68,R3] + 21292 _f[115,R1] + 26760 _f[115,R2]
   + 48033 _f[115,R3] + 22382 _f[111,R1] + 28129 _f[111,R2]
   + 50491 _f[111,R3] + 78936 _f[9,R1] + 99206 _f[9,R2] + 178071 _f[9,R3]
   + 51008 _f[30,R1] + 64107 _f[30,R2] + 115071 _f[30,R3] + 67725 _f[5,R1]
   + 85115 _f[5,R2] + 152780 _f[5,R3] + 5452 _f[67,R1] + 6852 _f[67,R2]
   + 12299 _f[67,R3] + 46689 _f[92,R1] + 58681 _f[92,R2] + 105329 _f[92,R3]
   + 164462 _f[122,R1] + 206695 _f[122,R2] + 371013 _f[122,R3]
   + 20735 _f[133,R1] + 26059 _f[133,R2] + 46774 _f[133,R3]
   + 664 _f[135,R1] + 835 _f[135,R2] + 1498 _f[135,R3] + 47602 _f[73,R1]
   + 59825 _f[73,R2] + 107386 _f[73,R3] + 33082 _f[27,R1] + 41577 _f[27,R2]
   + 74630 _f[27,R3] + 53886 _f[32,R1] + 67723 _f[32,R2] + 121562 _f[32,R3]
   + 59395 _f[18,R1] + 74647 _f[18,R2] + 133989 _f[18,R3] + 31193 _f[45,R1]
   + 39202 _f[45,R2] + 70367 _f[45,R3] + 37236 _f[91,R1] + 46796 _f[91,R2]
   + 83999 _f[91,R3] + 10506 _f[101,R1] + 13204 _f[101,R2]
   + 23701 _f[101,R3] + 11993 _f[49,R1] + 15072 _f[49,R2] + 27055 _f[49,R3]
   + 36687 _f[83,R1] + 46107 _f[83,R2] + 82761 _f[83,R3]
   + 2.229121e+06 _r1[105,Do_nothing,Recover]
   + 2.228456e+06 _r1[105,R1,Recover] + 1.598828e+06 _r1[105,R2,Recover]
   + 973412 _r1[105,R3,Recover] + 7.661119e+06 _r1[19,Do_nothing,Recover]
   + 7.658833e+06 _r1[19,R1,Recover] + 5.494909e+06 _r1[19,R2,Recover]
   + 3.345454e+06 _r1[19,R3,Recover]
   + 6.360047e+06 _r1[150,Do_nothing,Recover]
   + 6.35815e+06 _r1[150,R1,Recover] + 4.56172e+06 _r1[150,R2,Recover]
   + 2.777303e+06 _r1[150,R3,Recover]
   + 8.395899e+06 _r1[61,Do_nothing,Recover]
   + 8.393394e+06 _r1[61,R1,Recover] + 6.021927e+06 _r1[61,R2,Recover]
   + 3.666318e+06 _r1[61,R3,Recover]
   + 1.414964e+06 _r1[109,Do_nothing,Recover]
   + 1.414542e+06 _r1[109,R1,Recover] + 1.014878e+06 _r1[109,R2,Recover]
   + 617886 _r1[109,R3,Recover] + 3.071911e+06 _r1[126,Do_nothing,Recover]
   + 3.070995e+06 _r1[126,R1,Recover] + 2.203317e+06 _r1[126,R2,Recover]
   + 1.341441e+06 _r1[126,R3,Recover]
   + 1.926495e+06 _r1[137,Do_nothing,Recover]
   + 1.92592e+06 _r1[137,R1,Recover] + 1.381771e+06 _r1[137,R2,Recover]
   + 841261 _r1[137,R3,Recover] + 2.0876574e+07 _r1[31,Do_nothing,Recover]
   + 2.0870346e+07 _r1[31,R1,Recover] + 1.4973644e+07 _r1[31,R2,Recover]
   + 9.116374e+06 _r1[31,R3,Recover]
   + 8.841919e+06 _r1[1,Do_nothing,Recover]
   + 8.839281e+06 _r1[1,R1,Recover] + 6.341833e+06 _r1[1,R2,Recover]
   + 3.861086e+06 _r1[1,R3,Recover]
   + 7.028081e+06 _r1[51,Do_nothing,Recover]
   + 7.025984e+06 _r1[51,R1,Recover] + 5.040865e+06 _r1[51,R2,Recover]
   + 3.06902e+06 _r1[51,R3,Recover]
   + 1.0368913e+07 _r1[39,Do_nothing,Recover]
   + 1.036582e+07 _r1[39,R1,Recover] + 7.437064e+06 _r1[39,R2,Recover]
   + 4.527893e+06 _r1[39,R3,Recover]
   + 1.5259548e+07 _r1[81,Do_nothing,Recover]
   + 1.5254996e+07 _r1[81,R1,Recover] + 1.0944854e+07 _r1[81,R2,Recover]
   + 6.663534e+06 _r1[81,R3,Recover]
   + 3.551175e+06 _r1[147,Do_nothing,Recover]
   + 3.550116e+06 _r1[147,R1,Recover] + 2.547067e+06 _r1[147,R2,Recover]
   + 1.550726e+06 _r1[147,R3,Recover]
   + 8.517075e+06 _r1[44,Do_nothing,Recover]
   + 8.514534e+06 _r1[44,R1,Recover] + 6.10884e+06 _r1[44,R2,Recover]
   + 3.719233e+06 _r1[44,R3,Recover]
   + 1.5514733e+07 _r1[97,Do_nothing,Recover]
   + 1.5510104e+07 _r1[97,R1,Recover] + 1.1127884e+07 _r1[97,R2,Recover]
   + 6.774967e+06 _r1[97,R3,Recover]
   + 1.5321833e+07 _r1[71,Do_nothing,Recover]
   + 1.5317261e+07 _r1[71,R1,Recover] + 1.0989527e+07 _r1[71,R2,Recover]
   + 6.690732e+06 _r1[71,R3,Recover]
   + 1.3711423e+07 _r1[134,Do_nothing,Recover]
   + 1.3707333e+07 _r1[134,R1,Recover] + 9.834467e+06 _r1[134,R2,Recover]
   + 5.987499e+06 _r1[134,R3,Recover]
   + 1.6179614e+07 _r1[11,Do_nothing,Recover]
   + 1.6174787e+07 _r1[11,R1,Recover] + 1.1604767e+07 _r1[11,R2,Recover]
   + 7.065307e+06 _r1[11,R3,Recover]
   + 2.1500872e+07 _r1[69,Do_nothing,Recover]
   + 2.1494859e+07 _r1[69,R1,Recover] + 1.5659722e+07 _r1[69,R2,Recover]
   + 9.909848e+06 _r1[69,R3,Recover]
   + 1.2257776e+07 _r1[12,Do_nothing,Recover]
   + 1.2254119e+07 _r1[12,R1,Recover] + 8.791844e+06 _r1[12,R2,Recover]
   + 5.352721e+06 _r1[12,R3,Recover]
   + 3.211623e+07 _r1[87,Do_nothing,Recover]
   + 3.2106649e+07 _r1[87,R1,Recover] + 2.3035246e+07 _r1[87,R2,Recover]
   + 1.4024503e+07 _r1[87,R3,Recover]
   + 3.456735e+06 _r1[123,Do_nothing,Recover]
   + 3.455703e+06 _r1[123,R1,Recover] + 2.47933e+06 _r1[123,R2,Recover]
   + 1.509486e+06 _r1[123,R3,Recover]
   + 6.124205e+06 _r1[148,Do_nothing,Recover]
   + 6.122377e+06 _r1[148,R1,Recover] + 4.392563e+06 _r1[148,R2,Recover]
   + 2.674315e+06 _r1[148,R3,Recover]
   + 1.3389733e+07 _r1[41,Do_nothing,Recover]
   + 1.3385738e+07 _r1[41,R1,Recover] + 9.603735e+06 _r1[41,R2,Recover]
   + 5.847023e+06 _r1[41,R3,Recover]
   + 2.556896e+06 _r1[106,Do_nothing,Recover]
   + 2.556133e+06 _r1[106,R1,Recover] + 1.833924e+06 _r1[106,R2,Recover]
   + 1.116544e+06 _r1[106,R3,Recover]
   + 1.5809615e+07 _r1[34,Do_nothing,Recover]
   + 1.5804898e+07 _r1[34,R1,Recover] + 1.1339387e+07 _r1[34,R2,Recover]
   + 6.903736e+06 _r1[34,R3,Recover]
   + 1.7532994e+07 _r1[114,Do_nothing,Recover]
   + 1.7527764e+07 _r1[114,R1,Recover] + 1.2575474e+07 _r1[114,R2,Recover]
   + 7.656301e+06 _r1[114,R3,Recover]
   + 8.43744e+06 _r1[47,Do_nothing,Recover]
   + 8.434923e+06 _r1[47,R1,Recover] + 6.051722e+06 _r1[47,R2,Recover]
   + 3.684458e+06 _r1[47,R3,Recover]
   + 1.1182056e+07 _r1[75,Do_nothing,Recover]
   + 1.1178719e+07 _r1[75,R1,Recover] + 8.020287e+06 _r1[75,R2,Recover]
   + 4.882976e+06 _r1[75,R3,Recover]
   + 7.929007e+06 _r1[119,Do_nothing,Recover]
   + 7.926642e+06 _r1[119,R1,Recover] + 5.687051e+06 _r1[119,R2,Recover]
   + 3.462436e+06 _r1[119,R3,Recover]
   + 1.4587956e+07 _r1[28,Do_nothing,Recover]
   + 1.4583604e+07 _r1[28,R1,Recover] + 1.0463157e+07 _r1[28,R2,Recover]
   + 6.370263e+06 _r1[28,R3,Recover]
   + 1.059827e+06 _r1[93,Do_nothing,Recover]
   + 1.05951e+06 _r1[93,R1,Recover] + 760157 _r1[93,R2,Recover]
   + 462805 _r1[93,R3,Recover] + 5.023261e+06 _r1[59,Do_nothing,Recover]
   + 5.021762e+06 _r1[59,R1,Recover] + 3.602915e+06 _r1[59,R2,Recover]
   + 2.193556e+06 _r1[59,R3,Recover]
   + 1.6292105e+07 _r1[90,Do_nothing,Recover]
   + 1.6287244e+07 _r1[90,R1,Recover] + 1.1685451e+07 _r1[90,R2,Recover]
   + 7.11443e+06 _r1[90,R3,Recover]
   + 4.7912901e+07 _r1[95,Do_nothing,Recover]
   + 4.7898607e+07 _r1[95,R1,Recover] + 3.4365348e+07 _r1[95,R2,Recover]
   + 2.0922587e+07 _r1[95,R3,Recover]
   + 9.689632e+06 _r1[3,Do_nothing,Recover]
   + 9.686742e+06 _r1[3,R1,Recover] + 6.949852e+06 _r1[3,R2,Recover]
   + 4.231265e+06 _r1[3,R3,Recover]
   + 3.213701e+07 _r1[82,Do_nothing,Recover]
   + 3.2127422e+07 _r1[82,R1,Recover] + 2.305015e+07 _r1[82,R2,Recover]
   + 1.4033577e+07 _r1[82,R3,Recover]
   + 1.3603357e+07 _r1[72,Do_nothing,Recover]
   + 1.3599299e+07 _r1[72,R1,Recover] + 9.756957e+06 _r1[72,R2,Recover]
   + 5.940309e+06 _r1[72,R3,Recover]
   + 2.0907274e+07 _r1[46,Do_nothing,Recover]
   + 2.0901036e+07 _r1[46,R1,Recover] + 1.4995663e+07 _r1[46,R2,Recover]
   + 9.12978e+06 _r1[46,R3,Recover]
   + 9.06703e+06 _r1[33,Do_nothing,Recover]
   + 9.064325e+06 _r1[33,R1,Recover] + 6.503293e+06 _r1[33,R2,Recover]
   + 3.959387e+06 _r1[33,R3,Recover]
   + 1.891855e+07 _r1[116,Do_nothing,Recover]
   + 1.8912906e+07 _r1[116,R1,Recover] + 1.3569259e+07 _r1[116,R2,Recover]
   + 8.261345e+06 _r1[116,R3,Recover]
   + 1.1326832e+07 _r1[13,Do_nothing,Recover]
   + 1.1323453e+07 _r1[13,R1,Recover] + 8.124128e+06 _r1[13,R2,Recover]
   + 4.946197e+06 _r1[13,R3,Recover]
   + 8.145748e+06 _r1[104,Do_nothing,Recover]
   + 8.143318e+06 _r1[104,R1,Recover] + 5.842507e+06 _r1[104,R2,Recover]
   + 3.557082e+06 _r1[104,R3,Recover]
   + 2.4654096e+07 _r1[130,Do_nothing,Recover]
   + 2.4646741e+07 _r1[130,R1,Recover] + 1.7683058e+07 _r1[130,R2,Recover]
   + 1.0765941e+07 _r1[130,R3,Recover]
   + 1.8542227e+07 _r1[139,Do_nothing,Recover]
   + 1.8536695e+07 _r1[139,R1,Recover] + 1.3299342e+07 _r1[139,R2,Recover]
   + 8.097012e+06 _r1[139,R3,Recover]
   + 1.9388097e+07 _r1[36,Do_nothing,Recover]
   + 1.9382312e+07 _r1[36,R1,Recover] + 1.3906039e+07 _r1[36,R2,Recover]
   + 8.466386e+06 _r1[36,R3,Recover]
   + 1.3534085e+07 _r1[25,Do_nothing,Recover]
   + 1.3530047e+07 _r1[25,R1,Recover] + 9.707272e+06 _r1[25,R2,Recover]
   + 5.910059e+06 _r1[25,R3,Recover]
   + 1.3986724e+07 _r1[64,Do_nothing,Recover]
   + 1.3982551e+07 _r1[64,R1,Recover] + 1.0031925e+07 _r1[64,R2,Recover]
   + 6.107717e+06 _r1[64,R3,Recover]
   + 1.8956606e+07 _r1[110,Do_nothing,Recover]
   + 1.8950951e+07 _r1[110,R1,Recover] + 1.3596555e+07 _r1[110,R2,Recover]
   + 8.277963e+06 _r1[110,R3,Recover]
   + 1.1276146e+07 _r1[10,Do_nothing,Recover]
   + 1.1272781e+07 _r1[10,R1,Recover] + 8.087773e+06 _r1[10,R2,Recover]
   + 4.924063e+06 _r1[10,R3,Recover]
   + 2.222907e+07 _r1[7,Do_nothing,Recover]
   + 2.2222438e+07 _r1[7,R1,Recover] + 1.5943717e+07 _r1[7,R2,Recover]
   + 9.706981e+06 _r1[7,R3,Recover]
   + 7.6176511e+07 _r1[80,Do_nothing,Recover]
   + 7.6153784e+07 _r1[80,R1,Recover] + 5.4637316e+07 _r1[80,R2,Recover]
   + 3.3264729e+07 _r1[80,R3,Recover]
   + 3.3581218e+07 _r1[124,Do_nothing,Recover]
   + 3.3571199e+07 _r1[124,R1,Recover] + 2.4086002e+07 _r1[124,R2,Recover]
   + 1.4664233e+07 _r1[124,R3,Recover]
   + 1.0942949e+07 _r1[127,Do_nothing,Recover]
   + 1.0939684e+07 _r1[127,R1,Recover] + 7.848789e+06 _r1[127,R2,Recover]
   + 4.778563e+06 _r1[127,R3,Recover]
   + 1.4352187e+07 _r1[40,Do_nothing,Recover]
   + 1.4347905e+07 _r1[40,R1,Recover] + 1.0294052e+07 _r1[40,R2,Recover]
   + 6.267307e+06 _r1[40,R3,Recover]
   + 1.4990628e+07 _r1[103,Do_nothing,Recover]
   + 1.4986155e+07 _r1[103,R1,Recover] + 1.0751971e+07 _r1[103,R2,Recover]
   + 6.546101e+06 _r1[103,R3,Recover]
   + 7.848562e+06 _r1[118,Do_nothing,Recover]
   + 7.84622e+06 _r1[118,R1,Recover] + 5.629351e+06 _r1[118,R2,Recover]
   + 3.427307e+06 _r1[118,R3,Recover]
   + 1.5585185e+07 _r1[136,Do_nothing,Recover]
   + 1.5580535e+07 _r1[136,R1,Recover] + 1.1178415e+07 _r1[136,R2,Recover]
   + 6.805732e+06 _r1[136,R3,Recover]
   + 1.1155984e+07 _r1[65,Do_nothing,Recover]
   + 1.1152656e+07 _r1[65,R1,Recover] + 8.001588e+06 _r1[65,R2,Recover]
   + 4.871591e+06 _r1[65,R3,Recover]
   + 1.9749872e+07 _r1[62,Do_nothing,Recover]
   + 1.974398e+07 _r1[62,R1,Recover] + 1.4165522e+07 _r1[62,R2,Recover]
   + 8.624366e+06 _r1[62,R3,Recover]
   + 7.237539e+06 _r1[125,Do_nothing,Recover]
   + 7.23538e+06 _r1[125,R1,Recover] + 5.191098e+06 _r1[125,R2,Recover]
   + 3.160486e+06 _r1[125,R3,Recover]
   + 2.275954e+06 _r1[60,Do_nothing,Recover]
   + 2.275275e+06 _r1[60,R1,Recover] + 1.632419e+06 _r1[60,R2,Recover]
   + 993863 _r1[60,R3,Recover] + 2.048845e+07 _r1[17,Do_nothing,Recover]
   + 2.0482338e+07 _r1[17,R1,Recover] + 1.4695264e+07 _r1[17,R2,Recover]
   + 8.946888e+06 _r1[17,R3,Recover]
   + 1.249419e+07 _r1[53,Do_nothing,Recover]
   + 1.2490463e+07 _r1[53,R1,Recover] + 8.961411e+06 _r1[53,R2,Recover]
   + 5.455958e+06 _r1[53,R3,Recover]
   + 9.482055e+06 _r1[131,Do_nothing,Recover]
   + 9.479226e+06 _r1[131,R1,Recover] + 6.800969e+06 _r1[131,R2,Recover]
   + 4.14062e+06 _r1[131,R3,Recover]
   + 5.549173e+06 _r1[55,Do_nothing,Recover]
   + 5.547518e+06 _r1[55,R1,Recover] + 3.980124e+06 _r1[55,R2,Recover]
   + 2.423211e+06 _r1[55,R3,Recover]
   + 1.1630509e+07 _r1[58,Do_nothing,Recover]
   + 1.1627039e+07 _r1[58,R1,Recover] + 8.341939e+06 _r1[58,R2,Recover]
   + 5.078806e+06 _r1[58,R3,Recover]
   + 8.67533e+06 _r1[107,Do_nothing,Recover]
   + 8.672741e+06 _r1[107,R1,Recover] + 6.222348e+06 _r1[107,R2,Recover]
   + 3.78834e+06 _r1[107,R3,Recover]
   + 2.0297154e+07 _r1[4,Do_nothing,Recover]
   + 2.0291099e+07 _r1[4,R1,Recover] + 1.4558058e+07 _r1[4,R2,Recover]
   + 8.863353e+06 _r1[4,R3,Recover]
   + 4.749786e+06 _r1[149,Do_nothing,Recover]
   + 4.748369e+06 _r1[149,R1,Recover] + 3.406766e+06 _r1[149,R2,Recover]
   + 2.074135e+06 _r1[149,R3,Recover]
   + 3.185398e+06 _r1[63,Do_nothing,Recover]
   + 3.184448e+06 _r1[63,R1,Recover] + 2.284715e+06 _r1[63,R2,Recover]
   + 1.390999e+06 _r1[63,R3,Recover]
   + 9.399249e+06 _r1[57,Do_nothing,Recover]
   + 9.396445e+06 _r1[57,R1,Recover] + 6.741576e+06 _r1[57,R2,Recover]
   + 4.104461e+06 _r1[57,R3,Recover]
   + 2.351329e+06 _r1[23,Do_nothing,Recover]
   + 2.350627e+06 _r1[23,R1,Recover] + 1.686482e+06 _r1[23,R2,Recover]
   + 1.026777e+06 _r1[23,R3,Recover]
   + 5.09493e+06 _r1[117,Do_nothing,Recover]
   + 5.09341e+06 _r1[117,R1,Recover] + 3.654319e+06 _r1[117,R2,Recover]
   + 2.224852e+06 _r1[117,R3,Recover]
   + 4.397985e+06 _r1[108,Do_nothing,Recover]
   + 4.396673e+06 _r1[108,R1,Recover] + 3.154438e+06 _r1[108,R2,Recover]
   + 1.92051e+06 _r1[108,R3,Recover]
   + 1.1682597e+07 _r1[138,Do_nothing,Recover]
   + 1.1679111e+07 _r1[138,R1,Recover] + 8.379299e+06 _r1[138,R2,Recover]
   + 5.101552e+06 _r1[138,R3,Recover]
   + 1.2241145e+07 _r1[6,Do_nothing,Recover]
   + 1.2237493e+07 _r1[6,R1,Recover] + 8.779915e+06 _r1[6,R2,Recover]
   + 5.345458e+06 _r1[6,R3,Recover]
   + 3.836506e+06 _r1[86,Do_nothing,Recover]
   + 3.835361e+06 _r1[86,R1,Recover] + 2.751719e+06 _r1[86,R2,Recover]
   + 1.675324e+06 _r1[86,R3,Recover]
   + 2.3640789e+07 _r1[121,Do_nothing,Recover]
   + 2.363415e+07 _r1[121,R1,Recover] + 1.7201911e+07 _r1[121,R2,Recover]
   + 1.0860351e+07 _r1[121,R3,Recover]
   + 5.579873e+06 _r1[145,Do_nothing,Recover]
   + 5.578208e+06 _r1[145,R1,Recover] + 4.002143e+06 _r1[145,R2,Recover]
   + 2.436617e+06 _r1[145,R3,Recover]
   + 6.719112e+06 _r1[99,Do_nothing,Recover]
   + 6.717108e+06 _r1[99,R1,Recover] + 4.819258e+06 _r1[99,R2,Recover]
   + 2.934099e+06 _r1[99,R3,Recover] + 7.017e+06 _r1[21,Do_nothing,Recover]
   + 7.014906e+06 _r1[21,R1,Recover] + 5.032917e+06 _r1[21,R2,Recover]
   + 3.064181e+06 _r1[21,R3,Recover]
   + 7.066432e+06 _r1[42,Do_nothing,Recover]
   + 7.064324e+06 _r1[42,R1,Recover] + 5.068372e+06 _r1[42,R2,Recover]
   + 3.085767e+06 _r1[42,R3,Recover]
   + 1.2445071e+07 _r1[98,Do_nothing,Recover]
   + 1.2441358e+07 _r1[98,R1,Recover] + 8.92618e+06 _r1[98,R2,Recover]
   + 5.434509e+06 _r1[98,R3,Recover]
   + 6.536206e+06 _r1[100,Do_nothing,Recover]
   + 6.534256e+06 _r1[100,R1,Recover] + 4.688069e+06 _r1[100,R2,Recover]
   + 2.854228e+06 _r1[100,R3,Recover]
   + 4.3331087e+07 _r1[76,Do_nothing,Recover]
   + 4.331816e+07 _r1[76,R1,Recover] + 3.107906e+07 _r1[76,R2,Recover]
   + 1.8921802e+07 _r1[76,R3,Recover]
   + 7.5499037e+07 _r1[102,Do_nothing,Recover]
   + 7.5476512e+07 _r1[102,R1,Recover] + 5.41514e+07 _r1[102,R2,Recover]
   + 3.296889e+07 _r1[102,R3,Recover]
   + 2.800372e+06 _r1[141,Do_nothing,Recover]
   + 2.799537e+06 _r1[141,R1,Recover] + 2.008557e+06 _r1[141,R2,Recover]
   + 1.222865e+06 _r1[141,R3,Recover]
   + 1.7325233e+07 _r1[146,Do_nothing,Recover]
   + 1.7320064e+07 _r1[146,R1,Recover] + 1.2426458e+07 _r1[146,R2,Recover]
   + 7.565576e+06 _r1[146,R3,Recover]
   + 2.5746872e+07 _r1[94,Do_nothing,Recover]
   + 2.573919e+07 _r1[94,R1,Recover] + 1.8466847e+07 _r1[94,R2,Recover]
   + 1.1243134e+07 _r1[94,R3,Recover]
   + 3.2971596e+07 _r1[79,Do_nothing,Recover]
   + 3.2961759e+07 _r1[79,R1,Recover] + 2.3648753e+07 _r1[79,R2,Recover]
   + 1.4398024e+07 _r1[79,R3,Recover]
   + 2.6069614e+07 _r1[2,Do_nothing,Recover]
   + 2.6061836e+07 _r1[2,R1,Recover] + 1.8698332e+07 _r1[2,R2,Recover]
   + 1.1384069e+07 _r1[2,R3,Recover]
   + 3.6308022e+07 _r1[140,Do_nothing,Recover]
   + 3.6297189e+07 _r1[140,R1,Recover] + 2.6041792e+07 _r1[140,R2,Recover]
   + 1.5854973e+07 _r1[140,R3,Recover]
   + 1.0831159e+07 _r1[77,Do_nothing,Recover]
   + 1.0827927e+07 _r1[77,R1,Recover] + 7.768608e+06 _r1[77,R2,Recover]
   + 4.729746e+06 _r1[77,R3,Recover]
   + 1.5265061e+07 _r1[24,Do_nothing,Recover]
   + 1.5260507e+07 _r1[24,R1,Recover] + 1.0948808e+07 _r1[24,R2,Recover]
   + 6.665941e+06 _r1[24,R3,Recover]
   + 2.6197261e+07 _r1[66,Do_nothing,Recover]
   + 2.6189445e+07 _r1[66,R1,Recover] + 1.8789887e+07 _r1[66,R2,Recover]
   + 1.143981e+07 _r1[66,R3,Recover]
   + 6.226149e+06 _r1[8,Do_nothing,Recover]
   + 6.224292e+06 _r1[8,R1,Recover] + 4.465682e+06 _r1[8,R2,Recover]
   + 2.718832e+06 _r1[8,R3,Recover]
   + 9.122345e+06 _r1[43,Do_nothing,Recover]
   + 9.119623e+06 _r1[43,R1,Recover] + 6.542968e+06 _r1[43,R2,Recover]
   + 3.983542e+06 _r1[43,R3,Recover]
   + 1.5064472e+07 _r1[74,Do_nothing,Recover]
   + 1.5059978e+07 _r1[74,R1,Recover] + 1.0804936e+07 _r1[74,R2,Recover]
   + 6.578348e+06 _r1[74,R3,Recover]
   + 1.3890716e+07 _r1[35,Do_nothing,Recover]
   + 1.3886572e+07 _r1[35,R1,Recover] + 9.963064e+06 _r1[35,R2,Recover]
   + 6.065793e+06 _r1[35,R3,Recover] + 3.137e+07 _r1[26,Do_nothing,Recover]
   + 3.1360641e+07 _r1[26,R1,Recover] + 2.2500015e+07 _r1[26,R2,Recover]
   + 1.3698639e+07 _r1[26,R3,Recover]
   + 9.673499e+06 _r1[15,Do_nothing,Recover]
   + 9.670613e+06 _r1[15,R1,Recover] + 6.938281e+06 _r1[15,R2,Recover]
   + 4.22422e+06 _r1[15,R3,Recover]
   + 5.1001297e+07 _r1[56,Do_nothing,Recover]
   + 5.0986081e+07 _r1[56,R1,Recover] + 3.6580488e+07 _r1[56,R2,Recover]
   + 2.2271226e+07 _r1[56,R3,Recover]
   + 1.4489994e+07 _r1[88,Do_nothing,Recover]
   + 1.4485671e+07 _r1[88,R1,Recover] + 1.0392894e+07 _r1[88,R2,Recover]
   + 6.327485e+06 _r1[88,R3,Recover]
   + 1.1750873e+07 _r1[142,Do_nothing,Recover]
   + 1.1747368e+07 _r1[142,R1,Recover] + 8.42827e+06 _r1[142,R2,Recover]
   + 5.131367e+06 _r1[142,R3,Recover]
   + 1.0916361e+07 _r1[113,Do_nothing,Recover]
   + 1.0913105e+07 _r1[113,R1,Recover] + 7.829719e+06 _r1[113,R2,Recover]
   + 4.766952e+06 _r1[113,R3,Recover]
   + 7.858371e+06 _r1[52,Do_nothing,Recover]
   + 7.856026e+06 _r1[52,R1,Recover] + 5.636387e+06 _r1[52,R2,Recover]
   + 3.43159e+06 _r1[52,R3,Recover]
   + 1.421368e+07 _r1[37,Do_nothing,Recover]
   + 1.4209439e+07 _r1[37,R1,Recover] + 1.0194708e+07 _r1[37,R2,Recover]
   + 6.206824e+06 _r1[37,R3,Recover]
   + 1.2711816e+07 _r1[78,Do_nothing,Recover]
   + 1.2708024e+07 _r1[78,R1,Recover] + 9.117502e+06 _r1[78,R2,Recover]
   + 5.550991e+06 _r1[78,R3,Recover]
   + 1.1481658e+07 _r1[132,Do_nothing,Recover]
   + 1.1478232e+07 _r1[132,R1,Recover] + 8.235176e+06 _r1[132,R2,Recover]
   + 5.013806e+06 _r1[132,R3,Recover]
   + 1.5674924e+07 _r1[50,Do_nothing,Recover]
   + 1.5670247e+07 _r1[50,R1,Recover] + 1.124278e+07 _r1[50,R2,Recover]
   + 6.84492e+06 _r1[50,R3,Recover]
   + 1.7898919e+07 _r1[144,Do_nothing,Recover]
   + 1.7893579e+07 _r1[144,R1,Recover] + 1.2837932e+07 _r1[144,R2,Recover]
   + 7.816093e+06 _r1[144,R3,Recover]
   + 9.789973e+06 _r1[96,Do_nothing,Recover]
   + 9.787052e+06 _r1[96,R1,Recover] + 7.021821e+06 _r1[96,R2,Recover]
   + 4.275082e+06 _r1[96,R3,Recover]
   + 2.6805887e+07 _r1[120,Do_nothing,Recover]
   + 2.6801643e+07 _r1[120,R1,Recover] + 2.1454671e+07 _r1[120,R2,Recover]
   + 1.6575846e+07 _r1[120,R3,Recover]
   + 9.280876e+06 _r1[22,Do_nothing,Recover]
   + 9.278107e+06 _r1[22,R1,Recover] + 6.656674e+06 _r1[22,R2,Recover]
   + 4.052769e+06 _r1[22,R3,Recover]
   + 1.9981161e+07 _r1[84,Do_nothing,Recover]
   + 1.9975199e+07 _r1[84,R1,Recover] + 1.4331412e+07 _r1[84,R2,Recover]
   + 8.725365e+06 _r1[84,R3,Recover]
   + 8.980795e+06 _r1[85,Do_nothing,Recover]
   + 8.978116e+06 _r1[85,R1,Recover] + 6.441441e+06 _r1[85,R2,Recover]
   + 3.92173e+06 _r1[85,R3,Recover] + 884424 _r1[16,Do_nothing,Recover]
   + 884160 _r1[16,R1,Recover] + 634350 _r1[16,R2,Recover]
   + 386210 _r1[16,R3,Recover] + 3.552079e+06 _r1[20,Do_nothing,Recover]
   + 3.551019e+06 _r1[20,R1,Recover] + 2.547715e+06 _r1[20,R2,Recover]
   + 1.55112e+06 _r1[20,R3,Recover]
   + 5.063327e+06 _r1[128,Do_nothing,Recover]
   + 5.061816e+06 _r1[128,R1,Recover] + 3.631652e+06 _r1[128,R2,Recover]
   + 2.211052e+06 _r1[128,R3,Recover]
   + 2.2537319e+07 _r1[54,Do_nothing,Recover]
   + 2.2530595e+07 _r1[54,R1,Recover] + 1.6164808e+07 _r1[54,R2,Recover]
   + 9.841588e+06 _r1[54,R3,Recover]
   + 4.660656e+06 _r1[29,Do_nothing,Recover]
   + 4.659265e+06 _r1[29,R1,Recover] + 3.342838e+06 _r1[29,R2,Recover]
   + 2.035213e+06 _r1[29,R3,Recover]
   + 1.5790974e+07 _r1[14,Do_nothing,Recover]
   + 1.5786262e+07 _r1[14,R1,Recover] + 1.1326016e+07 _r1[14,R2,Recover]
   + 6.895596e+06 _r1[14,R3,Recover]
   + 7.1790179e+07 _r1[38,Do_nothing,Recover]
   + 7.176876e+07 _r1[38,R1,Recover] + 5.1491236e+07 _r1[38,R2,Recover]
   + 3.1349307e+07 _r1[38,R3,Recover]
   + 2.0712437e+07 _r1[70,Do_nothing,Recover]
   + 2.0706258e+07 _r1[70,R1,Recover] + 1.4855918e+07 _r1[70,R2,Recover]
   + 9.044699e+06 _r1[70,R3,Recover]
   + 1.95604973e+08 _r1[143,Do_nothing,Recover]
   + 1.95546615e+08 _r1[143,R1,Recover]
   + 1.40296932e+08 _r1[143,R2,Recover] + 8.5416702e+07 _r1[143,R3,Recover]
   + 2.7899585e+07 _r1[48,Do_nothing,Recover]
   + 2.7891261e+07 _r1[48,R1,Recover] + 2.0010872e+07 _r1[48,R2,Recover]
   + 1.218318e+07 _r1[48,R3,Recover]
   + 1.53659e+07 _r1[112,Do_nothing,Recover]
   + 1.5361316e+07 _r1[112,R1,Recover] + 1.1021134e+07 _r1[112,R2,Recover]
   + 6.709975e+06 _r1[112,R3,Recover]
   + 1.0010162e+07 _r1[89,Do_nothing,Recover]
   + 1.0007175e+07 _r1[89,R1,Recover] + 7.179751e+06 _r1[89,R2,Recover]
   + 4.371233e+06 _r1[89,R3,Recover]
   + 5.1990929e+07 _r1[129,Do_nothing,Recover]
   + 5.1975418e+07 _r1[129,R1,Recover] + 3.7290298e+07 _r1[129,R2,Recover]
   + 2.2703378e+07 _r1[129,R3,Recover]
   + 8.470076e+06 _r1[68,Do_nothing,Recover]
   + 8.467549e+06 _r1[68,R1,Recover] + 6.07513e+06 _r1[68,R2,Recover]
   + 3.698709e+06 _r1[68,R3,Recover]
   + 8.864229e+06 _r1[115,Do_nothing,Recover]
   + 8.861584e+06 _r1[115,R1,Recover] + 6.357835e+06 _r1[115,R2,Recover]
   + 3.870828e+06 _r1[115,R3,Recover] + 880257 _r1[111,Do_nothing,Recover]
   + 879995 _r1[111,R1,Recover] + 631361 _r1[111,R2,Recover]
   + 384390 _r1[111,R3,Recover] + 5.511117e+06 _r1[9,Do_nothing,Recover]
   + 5.509472e+06 _r1[9,R1,Recover] + 3.952828e+06 _r1[9,R2,Recover]
   + 2.406592e+06 _r1[9,R3,Recover]
   + 1.307599e+06 _r1[30,Do_nothing,Recover]
   + 1.307209e+06 _r1[30,R1,Recover] + 937870 _r1[30,R2,Recover]
   + 571002 _r1[30,R3,Recover] + 2.0558294e+07 _r1[5,Do_nothing,Recover]
   + 2.0552161e+07 _r1[5,R1,Recover] + 1.4745359e+07 _r1[5,R2,Recover]
   + 8.977388e+06 _r1[5,R3,Recover]
   + 1.411387e+06 _r1[67,Do_nothing,Recover]
   + 1.410966e+06 _r1[67,R1,Recover] + 1.012312e+06 _r1[67,R2,Recover]
   + 616324 _r1[67,R3,Recover] + 4.315511e+06 _r1[92,Do_nothing,Recover]
   + 4.314224e+06 _r1[92,R1,Recover] + 3.095284e+06 _r1[92,R2,Recover]
   + 1.884496e+06 _r1[92,R3,Recover]
   + 2.9685599e+07 _r1[122,Do_nothing,Recover]
   + 2.9676742e+07 _r1[122,R1,Recover] + 2.1291884e+07 _r1[122,R2,Recover]
   + 1.2963096e+07 _r1[122,R3,Recover]
   + 4.810665e+07 _r1[133,Do_nothing,Recover]
   + 4.8092298e+07 _r1[133,R1,Recover] + 3.4504314e+07 _r1[133,R2,Recover]
   + 2.1007193e+07 _r1[133,R3,Recover] + 97151 _r1[135,Do_nothing,Recover]
   + 97122 _r1[135,R1,Recover] + 69681 _r1[135,R2,Recover]
   + 42424 _r1[135,R3,Recover] + 6.120425e+06 _r1[73,Do_nothing,Recover]
   + 6.118599e+06 _r1[73,R1,Recover] + 4.389852e+06 _r1[73,R2,Recover]
   + 2.672665e+06 _r1[73,R3,Recover]
   + 1.378918e+06 _r1[27,Do_nothing,Recover]
   + 1.378506e+06 _r1[27,R1,Recover] + 989024 _r1[27,R2,Recover]
   + 602145 _r1[27,R3,Recover] + 4.147115e+06 _r1[32,Do_nothing,Recover]
   + 4.145878e+06 _r1[32,R1,Recover] + 2.974503e+06 _r1[32,R2,Recover]
   + 1.810961e+06 _r1[32,R3,Recover]
   + 7.673049e+06 _r1[18,Do_nothing,Recover]
   + 7.670759e+06 _r1[18,R1,Recover] + 5.503465e+06 _r1[18,R2,Recover]
   + 3.350664e+06 _r1[18,R3,Recover]
   + 1.106291e+06 _r1[45,Do_nothing,Recover]
   + 1.105961e+06 _r1[45,R1,Recover] + 793483 _r1[45,R2,Recover]
   + 483095 _r1[45,R3,Recover] + 1.422948e+06 _r1[91,Do_nothing,Recover]
   + 1.422524e+06 _r1[91,R1,Recover] + 1.020604e+06 _r1[91,R2,Recover]
   + 621372 _r1[91,R3,Recover] + 354917 _r1[101,Do_nothing,Recover]
   + 354811 _r1[101,R1,Recover] + 254563 _r1[101,R2,Recover]
   + 154985 _r1[101,R3,Recover] + 1.8390093e+07 _r1[49,Do_nothing,Recover]
   + 1.8384607e+07 _r1[49,R1,Recover] + 1.3190225e+07 _r1[49,R2,Recover]
   + 8.030579e+06 _r1[49,R3,Recover] + 396329 _r1[83,Do_nothing,Recover]
   + 396210 _r1[83,R1,Recover] + 284265 _r1[83,R2,Recover]
   + 173069 _r1[83,R3,Recover] <= 0
 R754: - _f[105,Do_nothing] + _r1[105,Do_nothing,Do_nothing]
   + _r1[105,Do_nothing,Recover] = 0
 R755: - _f[105,R1] + _r1[105,R1,Do_nothing] + _r1[105,R1,Recover] = 0
 R756: - _f[105,R2] + _r1[105,R2,Do_nothing] + _r1[105,R2,Recover] = 0
 R757: - _f[105,R3] + _r1[105,R3,Do_nothing] + _r1[105,R3,Recover] = 0
 R758: - _f[19,Do_nothing] + _r1[19,Do_nothing,Do_nothing]
   + _r1[19,Do_nothing,Recover] = 0
 R759: - _f[19,R1] + _r1[19,R1,Do_nothing] + _r1[19,R1,Recover] = 0
 R760: - _f[19,R2] + _r1[19,R2,Do_nothing] + _r1[19,R2,Recover] = 0
 R761: - _f[19,R3] + _r1[19,R3,Do_nothing] + _r1[19,R3,Recover] = 0
 R762: - _f[150,Do_nothing] + _r1[150,Do_nothing,Do_nothing]
   + _r1[150,Do_nothing,Recover] = 0
 R763: - _f[150,R1] + _r1[150,R1,Do_nothing] + _r1[150,R1,Recover] = 0
 R764: - _f[150,R2] + _r1[150,R2,Do_nothing] + _r1[150,R2,Recover] = 0
 R765: - _f[150,R3] + _r1[150,R3,Do_nothing] + _r1[150,R3,Recover] = 0
 R766: - _f[61,Do_nothing] + _r1[61,Do_nothing,Do_nothing]
   + _r1[61,Do_nothing,Recover] = 0
 R767: - _f[61,R1] + _r1[61,R1,Do_nothing] + _r1[61,R1,Recover] = 0
 R768: - _f[61,R2] + _r1[61,R2,Do_nothing] + _r1[61,R2,Recover] = 0
 R769: - _f[61,R3] + _r1[61,R3,Do_nothing] + _r1[61,R3,Recover] = 0
 R770: - _f[109,Do_nothing] + _r1[109,Do_nothing,Do_nothing]
   + _r1[109,Do_nothing,Recover] = 0
 R771: - _f[109,R1] + _r1[109,R1,Do_nothing] + _r1[109,R1,Recover] = 0
 R772: - _f[109,R2] + _r1[109,R2,Do_nothing] + _r1[109,R2,Recover] = 0
 R773: - _f[109,R3] + _r1[109,R3,Do_nothing] + _r1[109,R3,Recover] = 0
 R774: - _f[126,Do_nothing] + _r1[126,Do_nothing,Do_nothing]
   + _r1[126,Do_nothing,Recover] = 0
 R775: - _f[126,R1] + _r1[126,R1,Do_nothing] + _r1[126,R1,Recover] = 0
 R776: - _f[126,R2] + _r1[126,R2,Do_nothing] + _r1[126,R2,Recover] = 0
 R777: - _f[126,R3] + _r1[126,R3,Do_nothing] + _r1[126,R3,Recover] = 0
 R778: - _f[137,Do_nothing] + _r1[137,Do_nothing,Do_nothing]
   + _r1[137,Do_nothing,Recover] = 0
 R779: - _f[137,R1] + _r1[137,R1,Do_nothing] + _r1[137,R1,Recover] = 0
 R780: - _f[137,R2] + _r1[137,R2,Do_nothing] + _r1[137,R2,Recover] = 0
 R781: - _f[137,R3] + _r1[137,R3,Do_nothing] + _r1[137,R3,Recover] = 0
 R782: - _f[31,Do_nothing] + _r1[31,Do_nothing,Do_nothing]
   + _r1[31,Do_nothing,Recover] = 0
 R783: - _f[31,R1] + _r1[31,R1,Do_nothing] + _r1[31,R1,Recover] = 0
 R784: - _f[31,R2] + _r1[31,R2,Do_nothing] + _r1[31,R2,Recover] = 0
 R785: - _f[31,R3] + _r1[31,R3,Do_nothing] + _r1[31,R3,Recover] = 0
 R786: - _f[1,Do_nothing] + _r1[1,Do_nothing,Do_nothing]
   + _r1[1,Do_nothing,Recover] = 0
 R787: - _f[1,R1] + _r1[1,R1,Do_nothing] + _r1[1,R1,Recover] = 0
 R788: - _f[1,R2] + _r1[1,R2,Do_nothing] + _r1[1,R2,Recover] = 0
 R789: - _f[1,R3] + _r1[1,R3,Do_nothing] + _r1[1,R3,Recover] = 0
 R790: - _f[51,Do_nothing] + _r1[51,Do_nothing,Do_nothing]
   + _r1[51,Do_nothing,Recover] = 0
 R791: - _f[51,R1] + _r1[51,R1,Do_nothing] + _r1[51,R1,Recover] = 0
 R792: - _f[51,R2] + _r1[51,R2,Do_nothing] + _r1[51,R2,Recover] = 0
 R793: - _f[51,R3] + _r1[51,R3,Do_nothing] + _r1[51,R3,Recover] = 0
 R794: - _f[39,Do_nothing] + _r1[39,Do_nothing,Do_nothing]
   + _r1[39,Do_nothing,Recover] = 0
 R795: - _f[39,R1] + _r1[39,R1,Do_nothing] + _r1[39,R1,Recover] = 0
 R796: - _f[39,R2] + _r1[39,R2,Do_nothing] + _r1[39,R2,Recover] = 0
 R797: - _f[39,R3] + _r1[39,R3,Do_nothing] + _r1[39,R3,Recover] = 0
 R798: - _f[81,Do_nothing] + _r1[81,Do_nothing,Do_nothing]
   + _r1[81,Do_nothing,Recover] = 0
 R799: - _f[81,R1] + _r1[81,R1,Do_nothing] + _r1[81,R1,Recover] = 0
 R800: - _f[81,R2] + _r1[81,R2,Do_nothing] + _r1[81,R2,Recover] = 0
 R801: - _f[81,R3] + _r1[81,R3,Do_nothing] + _r1[81,R3,Recover] = 0
 R802: - _f[147,Do_nothing] + _r1[147,Do_nothing,Do_nothing]
   + _r1[147,Do_nothing,Recover] = 0
 R803: - _f[147,R1] + _r1[147,R1,Do_nothing] + _r1[147,R1,Recover] = 0
 R804: - _f[147,R2] + _r1[147,R2,Do_nothing] + _r1[147,R2,Recover] = 0
 R805: - _f[147,R3] + _r1[147,R3,Do_nothing] + _r1[147,R3,Recover] = 0
 R806: - _f[44,Do_nothing] + _r1[44,Do_nothing,Do_nothing]
   + _r1[44,Do_nothing,Recover] = 0
 R807: - _f[44,R1] + _r1[44,R1,Do_nothing] + _r1[44,R1,Recover] = 0
 R808: - _f[44,R2] + _r1[44,R2,Do_nothing] + _r1[44,R2,Recover] = 0
 R809: - _f[44,R3] + _r1[44,R3,Do_nothing] + _r1[44,R3,Recover] = 0
 R810: - _f[97,Do_nothing] + _r1[97,Do_nothing,Do_nothing]
   + _r1[97,Do_nothing,Recover] = 0
 R811: - _f[97,R1] + _r1[97,R1,Do_nothing] + _r1[97,R1,Recover] = 0
 R812: - _f[97,R2] + _r1[97,R2,Do_nothing] + _r1[97,R2,Recover] = 0
 R813: - _f[97,R3] + _r1[97,R3,Do_nothing] + _r1[97,R3,Recover] = 0
 R814: - _f[71,Do_nothing] + _r1[71,Do_nothing,Do_nothing]
   + _r1[71,Do_nothing,Recover] = 0
 R815: - _f[71,R1] + _r1[71,R1,Do_nothing] + _r1[71,R1,Recover] = 0
 R816: - _f[71,R2] + _r1[71,R2,Do_nothing] + _r1[71,R2,Recover] = 0
 R817: - _f[71,R3] + _r1[71,R3,Do_nothing] + _r1[71,R3,Recover] = 0
 R818: - _f[134,Do_nothing] + _r1[134,Do_nothing,Do_nothing]
   + _r1[134,Do_nothing,Recover] = 0
 R819: - _f[134,R1] + _r1[134,R1,Do_nothing] + _r1[134,R1,Recover] = 0
 R820: - _f[134,R2] + _r1[134,R2,Do_nothing] + _r1[134,R2,Recover] = 0
 R821: - _f[134,R3] + _r1[134,R3,Do_nothing] + _r1[134,R3,Recover] = 0
 R822: - _f[11,Do_nothing] + _r1[11,Do_nothing,Do_nothing]
   + _r1[11,Do_nothing,Recover] = 0
 R823: - _f[11,R1] + _r1[11,R1,Do_nothing] + _r1[11,R1,Recover] = 0
 R824: - _f[11,R2] + _r1[11,R2,Do_nothing] + _r1[11,R2,Recover] = 0
 R825: - _f[11,R3] + _r1[11,R3,Do_nothing] + _r1[11,R3,Recover] = 0
 R826: - _f[69,Do_nothing] + _r1[69,Do_nothing,Do_nothing]
   + _r1[69,Do_nothing,Recover] = 0
 R827: - _f[69,R1] + _r1[69,R1,Do_nothing] + _r1[69,R1,Recover] = 0
 R828: - _f[69,R2] + _r1[69,R2,Do_nothing] + _r1[69,R2,Recover] = 0
 R829: - _f[69,R3] + _r1[69,R3,Do_nothing] + _r1[69,R3,Recover] = 0
 R830: - _f[12,Do_nothing] + _r1[12,Do_nothing,Do_nothing]
   + _r1[12,Do_nothing,Recover] = 0
 R831: - _f[12,R1] + _r1[12,R1,Do_nothing] + _r1[12,R1,Recover] = 0
 R832: - _f[12,R2] + _r1[12,R2,Do_nothing] + _r1[12,R2,Recover] = 0
 R833: - _f[12,R3] + _r1[12,R3,Do_nothing] + _r1[12,R3,Recover] = 0
 R834: - _f[87,Do_nothing] + _r1[87,Do_nothing,Do_nothing]
   + _r1[87,Do_nothing,Recover] = 0
 R835: - _f[87,R1] + _r1[87,R1,Do_nothing] + _r1[87,R1,Recover] = 0
 R836: - _f[87,R2] + _r1[87,R2,Do_nothing] + _r1[87,R2,Recover] = 0
 R837: - _f[87,R3] + _r1[87,R3,Do_nothing] + _r1[87,R3,Recover] = 0
 R838: - _f[123,Do_nothing] + _r1[123,Do_nothing,Do_nothing]
   + _r1[123,Do_nothing,Recover] = 0
 R839: - _f[123,R1] + _r1[123,R1,Do_nothing] + _r1[123,R1,Recover] = 0
 R840: - _f[123,R2] + _r1[123,R2,Do_nothing] + _r1[123,R2,Recover] = 0
 R841: - _f[123,R3] + _r1[123,R3,Do_nothing] + _r1[123,R3,Recover] = 0
 R842: - _f[148,Do_nothing] + _r1[148,Do_nothing,Do_nothing]
   + _r1[148,Do_nothing,Recover] = 0
 R843: - _f[148,R1] + _r1[148,R1,Do_nothing] + _r1[148,R1,Recover] = 0
 R844: - _f[148,R2] + _r1[148,R2,Do_nothing] + _r1[148,R2,Recover] = 0
 R845: - _f[148,R3] + _r1[148,R3,Do_nothing] + _r1[148,R3,Recover] = 0
 R846: - _f[41,Do_nothing] + _r1[41,Do_nothing,Do_nothing]
   + _r1[41,Do_nothing,Recover] = 0
 R847: - _f[41,R1] + _r1[41,R1,Do_nothing] + _r1[41,R1,Recover] = 0
 R848: - _f[41,R2] + _r1[41,R2,Do_nothing] + _r1[41,R2,Recover] = 0
 R849: - _f[41,R3] + _r1[41,R3,Do_nothing] + _r1[41,R3,Recover] = 0
 R850: - _f[106,Do_nothing] + _r1[106,Do_nothing,Do_nothing]
   + _r1[106,Do_nothing,Recover] = 0
 R851: - _f[106,R1] + _r1[106,R1,Do_nothing] + _r1[106,R1,Recover] = 0
 R852: - _f[106,R2] + _r1[106,R2,Do_nothing] + _r1[106,R2,Recover] = 0
 R853: - _f[106,R3] + _r1[106,R3,Do_nothing] + _r1[106,R3,Recover] = 0
 R854: - _f[34,Do_nothing] + _r1[34,Do_nothing,Do_nothing]
   + _r1[34,Do_nothing,Recover] = 0
 R855: - _f[34,R1] + _r1[34,R1,Do_nothing] + _r1[34,R1,Recover] = 0
 R856: - _f[34,R2] + _r1[34,R2,Do_nothing] + _r1[34,R2,Recover] = 0
 R857: - _f[34,R3] + _r1[34,R3,Do_nothing] + _r1[34,R3,Recover] = 0
 R858: - _f[114,Do_nothing] + _r1[114,Do_nothing,Do_nothing]
   + _r1[114,Do_nothing,Recover] = 0
 R859: - _f[114,R1] + _r1[114,R1,Do_nothing] + _r1[114,R1,Recover] = 0
 R860: - _f[114,R2] + _r1[114,R2,Do_nothing] + _r1[114,R2,Recover] = 0
 R861: - _f[114,R3] + _r1[114,R3,Do_nothing] + _r1[114,R3,Recover] = 0
 R862: - _f[47,Do_nothing] + _r1[47,Do_nothing,Do_nothing]
   + _r1[47,Do_nothing,Recover] = 0
 R863: - _f[47,R1] + _r1[47,R1,Do_nothing] + _r1[47,R1,Recover] = 0
 R864: - _f[47,R2] + _r1[47,R2,Do_nothing] + _r1[47,R2,Recover] = 0
 R865: - _f[47,R3] + _r1[47,R3,Do_nothing] + _r1[47,R3,Recover] = 0
 R866: - _f[75,Do_nothing] + _r1[75,Do_nothing,Do_nothing]
   + _r1[75,Do_nothing,Recover] = 0
 R867: - _f[75,R1] + _r1[75,R1,Do_nothing] + _r1[75,R1,Recover] = 0
 R868: - _f[75,R2] + _r1[75,R2,Do_nothing] + _r1[75,R2,Recover] = 0
 R869: - _f[75,R3] + _r1[75,R3,Do_nothing] + _r1[75,R3,Recover] = 0
 R870: - _f[119,Do_nothing] + _r1[119,Do_nothing,Do_nothing]
   + _r1[119,Do_nothing,Recover] = 0
 R871: - _f[119,R1] + _r1[119,R1,Do_nothing] + _r1[119,R1,Recover] = 0
 R872: - _f[119,R2] + _r1[119,R2,Do_nothing] + _r1[119,R2,Recover] = 0
 R873: - _f[119,R3] + _r1[119,R3,Do_nothing] + _r1[119,R3,Recover] = 0
 R874: - _f[28,Do_nothing] + _r1[28,Do_nothing,Do_nothing]
   + _r1[28,Do_nothing,Recover] = 0
 R875: - _f[28,R1] + _r1[28,R1,Do_nothing] + _r1[28,R1,Recover] = 0
 R876: - _f[28,R2] + _r1[28,R2,Do_nothing] + _r1[28,R2,Recover] = 0
 R877: - _f[28,R3] + _r1[28,R3,Do_nothing] + _r1[28,R3,Recover] = 0
 R878: - _f[93,Do_nothing] + _r1[93,Do_nothing,Do_nothing]
   + _r1[93,Do_nothing,Recover] = 0
 R879: - _f[93,R1] + _r1[93,R1,Do_nothing] + _r1[93,R1,Recover] = 0
 R880: - _f[93,R2] + _r1[93,R2,Do_nothing] + _r1[93,R2,Recover] = 0
 R881: - _f[93,R3] + _r1[93,R3,Do_nothing] + _r1[93,R3,Recover] = 0
 R882: - _f[59,Do_nothing] + _r1[59,Do_nothing,Do_nothing]
   + _r1[59,Do_nothing,Recover] = 0
 R883: - _f[59,R1] + _r1[59,R1,Do_nothing] + _r1[59,R1,Recover] = 0
 R884: - _f[59,R2] + _r1[59,R2,Do_nothing] + _r1[59,R2,Recover] = 0
 R885: - _f[59,R3] + _r1[59,R3,Do_nothing] + _r1[59,R3,Recover] = 0
 R886: - _f[90,Do_nothing] + _r1[90,Do_nothing,Do_nothing]
   + _r1[90,Do_nothing,Recover] = 0
 R887: - _f[90,R1] + _r1[90,R1,Do_nothing] + _r1[90,R1,Recover] = 0
 R888: - _f[90,R2] + _r1[90,R2,Do_nothing] + _r1[90,R2,Recover] = 0
 R889: - _f[90,R3] + _r1[90,R3,Do_nothing] + _r1[90,R3,Recover] = 0
 R890: - _f[95,Do_nothing] + _r1[95,Do_nothing,Do_nothing]
   + _r1[95,Do_nothing,Recover] = 0
 R891: - _f[95,R1] + _r1[95,R1,Do_nothing] + _r1[95,R1,Recover] = 0
 R892: - _f[95,R2] + _r1[95,R2,Do_nothing] + _r1[95,R2,Recover] = 0
 R893: - _f[95,R3] + _r1[95,R3,Do_nothing] + _r1[95,R3,Recover] = 0
 R894: - _f[3,Do_nothing] + _r1[3,Do_nothing,Do_nothing]
   + _r1[3,Do_nothing,Recover] = 0
 R895: - _f[3,R1] + _r1[3,R1,Do_nothing] + _r1[3,R1,Recover] = 0
 R896: - _f[3,R2] + _r1[3,R2,Do_nothing] + _r1[3,R2,Recover] = 0
 R897: - _f[3,R3] + _r1[3,R3,Do_nothing] + _r1[3,R3,Recover] = 0
 R898: - _f[82,Do_nothing] + _r1[82,Do_nothing,Do_nothing]
   + _r1[82,Do_nothing,Recover] = 0
 R899: - _f[82,R1] + _r1[82,R1,Do_nothing] + _r1[82,R1,Recover] = 0
 R900: - _f[82,R2] + _r1[82,R2,Do_nothing] + _r1[82,R2,Recover] = 0
 R901: - _f[82,R3] + _r1[82,R3,Do_nothing] + _r1[82,R3,Recover] = 0
 R902: - _f[72,Do_nothing] + _r1[72,Do_nothing,Do_nothing]
   + _r1[72,Do_nothing,Recover] = 0
 R903: - _f[72,R1] + _r1[72,R1,Do_nothing] + _r1[72,R1,Recover] = 0
 R904: - _f[72,R2] + _r1[72,R2,Do_nothing] + _r1[72,R2,Recover] = 0
 R905: - _f[72,R3] + _r1[72,R3,Do_nothing] + _r1[72,R3,Recover] = 0
 R906: - _f[46,Do_nothing] + _r1[46,Do_nothing,Do_nothing]
   + _r1[46,Do_nothing,Recover] = 0
 R907: - _f[46,R1] + _r1[46,R1,Do_nothing] + _r1[46,R1,Recover] = 0
 R908: - _f[46,R2] + _r1[46,R2,Do_nothing] + _r1[46,R2,Recover] = 0
 R909: - _f[46,R3] + _r1[46,R3,Do_nothing] + _r1[46,R3,Recover] = 0
 R910: - _f[33,Do_nothing] + _r1[33,Do_nothing,Do_nothing]
   + _r1[33,Do_nothing,Recover] = 0
 R911: - _f[33,R1] + _r1[33,R1,Do_nothing] + _r1[33,R1,Recover] = 0
 R912: - _f[33,R2] + _r1[33,R2,Do_nothing] + _r1[33,R2,Recover] = 0
 R913: - _f[33,R3] + _r1[33,R3,Do_nothing] + _r1[33,R3,Recover] = 0
 R914: - _f[116,Do_nothing] + _r1[116,Do_nothing,Do_nothing]
   + _r1[116,Do_nothing,Recover] = 0
 R915: - _f[116,R1] + _r1[116,R1,Do_nothing] + _r1[116,R1,Recover] = 0
 R916: - _f[116,R2] + _r1[116,R2,Do_nothing] + _r1[116,R2,Recover] = 0
 R917: - _f[116,R3] + _r1[116,R3,Do_nothing] + _r1[116,R3,Recover] = 0
 R918: - _f[13,Do_nothing] + _r1[13,Do_nothing,Do_nothing]
   + _r1[13,Do_nothing,Recover] = 0
 R919: - _f[13,R1] + _r1[13,R1,Do_nothing] + _r1[13,R1,Recover] = 0
 R920: - _f[13,R2] + _r1[13,R2,Do_nothing] + _r1[13,R2,Recover] = 0
 R921: - _f[13,R3] + _r1[13,R3,Do_nothing] + _r1[13,R3,Recover] = 0
 R922: - _f[104,Do_nothing] + _r1[104,Do_nothing,Do_nothing]
   + _r1[104,Do_nothing,Recover] = 0
 R923: - _f[104,R1] + _r1[104,R1,Do_nothing] + _r1[104,R1,Recover] = 0
 R924: - _f[104,R2] + _r1[104,R2,Do_nothing] + _r1[104,R2,Recover] = 0
 R925: - _f[104,R3] + _r1[104,R3,Do_nothing] + _r1[104,R3,Recover] = 0
 R926: - _f[130,Do_nothing] + _r1[130,Do_nothing,Do_nothing]
   + _r1[130,Do_nothing,Recover] = 0
 R927: - _f[130,R1] + _r1[130,R1,Do_nothing] + _r1[130,R1,Recover] = 0
 R928: - _f[130,R2] + _r1[130,R2,Do_nothing] + _r1[130,R2,Recover] = 0
 R929: - _f[130,R3] + _r1[130,R3,Do_nothing] + _r1[130,R3,Recover] = 0
 R930: - _f[139,Do_nothing] + _r1[139,Do_nothing,Do_nothing]
   + _r1[139,Do_nothing,Recover] = 0
 R931: - _f[139,R1] + _r1[139,R1,Do_nothing] + _r1[139,R1,Recover] = 0
 R932: - _f[139,R2] + _r1[139,R2,Do_nothing] + _r1[139,R2,Recover] = 0
 R933: - _f[139,R3] + _r1[139,R3,Do_nothing] + _r1[139,R3,Recover] = 0
 R934: - _f[36,Do_nothing] + _r1[36,Do_nothing,Do_nothing]
   + _r1[36,Do_nothing,Recover] = 0
 R935: - _f[36,R1] + _r1[36,R1,Do_nothing] + _r1[36,R1,Recover] = 0
 R936: - _f[36,R2] + _r1[36,R2,Do_nothing] + _r1[36,R2,Recover] = 0
 R937: - _f[36,R3] + _r1[36,R3,Do_nothing] + _r1[36,R3,Recover] = 0
 R938: - _f[25,Do_nothing] + _r1[25,Do_nothing,Do_nothing]
   + _r1[25,Do_nothing,Recover] = 0
 R939: - _f[25,R1] + _r1[25,R1,Do_nothing] + _r1[25,R1,Recover] = 0
 R940: - _f[25,R2] + _r1[25,R2,Do_nothing] + _r1[25,R2,Recover] = 0
 R941: - _f[25,R3] + _r1[25,R3,Do_nothing] + _r1[25,R3,Recover] = 0
 R942: - _f[64,Do_nothing] + _r1[64,Do_nothing,Do_nothing]
   + _r1[64,Do_nothing,Recover] = 0
 R943: - _f[64,R1] + _r1[64,R1,Do_nothing] + _r1[64,R1,Recover] = 0
 R944: - _f[64,R2] + _r1[64,R2,Do_nothing] + _r1[64,R2,Recover] = 0
 R945: - _f[64,R3] + _r1[64,R3,Do_nothing] + _r1[64,R3,Recover] = 0
 R946: - _f[110,Do_nothing] + _r1[110,Do_nothing,Do_nothing]
   + _r1[110,Do_nothing,Recover] = 0
 R947: - _f[110,R1] + _r1[110,R1,Do_nothing] + _r1[110,R1,Recover] = 0
 R948: - _f[110,R2] + _r1[110,R2,Do_nothing] + _r1[110,R2,Recover] = 0
 R949: - _f[110,R3] + _r1[110,R3,Do_nothing] + _r1[110,R3,Recover] = 0
 R950: - _f[10,Do_nothing] + _r1[10,Do_nothing,Do_nothing]
   + _r1[10,Do_nothing,Recover] = 0
 R951: - _f[10,R1] + _r1[10,R1,Do_nothing] + _r1[10,R1,Recover] = 0
 R952: - _f[10,R2] + _r1[10,R2,Do_nothing] + _r1[10,R2,Recover] = 0
 R953: - _f[10,R3] + _r1[10,R3,Do_nothing] + _r1[10,R3,Recover] = 0
 R954: - _f[7,Do_nothing] + _r1[7,Do_nothing,Do_nothing]
   + _r1[7,Do_nothing,Recover] = 0
 R955: - _f[7,R1] + _r1[7,R1,Do_nothing] + _r1[7,R1,Recover] = 0
 R956: - _f[7,R2] + _r1[7,R2,Do_nothing] + _r1[7,R2,Recover] = 0
 R957: - _f[7,R3] + _r1[7,R3,Do_nothing] + _r1[7,R3,Recover] = 0
 R958: - _f[80,Do_nothing] + _r1[80,Do_nothing,Do_nothing]
   + _r1[80,Do_nothing,Recover] = 0
 R959: - _f[80,R1] + _r1[80,R1,Do_nothing] + _r1[80,R1,Recover] = 0
 R960: - _f[80,R2] + _r1[80,R2,Do_nothing] + _r1[80,R2,Recover] = 0
 R961: - _f[80,R3] + _r1[80,R3,Do_nothing] + _r1[80,R3,Recover] = 0
 R962: - _f[124,Do_nothing] + _r1[124,Do_nothing,Do_nothing]
   + _r1[124,Do_nothing,Recover] = 0
 R963: - _f[124,R1] + _r1[124,R1,Do_nothing] + _r1[124,R1,Recover] = 0
 R964: - _f[124,R2] + _r1[124,R2,Do_nothing] + _r1[124,R2,Recover] = 0
 R965: - _f[124,R3] + _r1[124,R3,Do_nothing] + _r1[124,R3,Recover] = 0
 R966: - _f[127,Do_nothing] + _r1[127,Do_nothing,Do_nothing]
   + _r1[127,Do_nothing,Recover] = 0
 R967: - _f[127,R1] + _r1[127,R1,Do_nothing] + _r1[127,R1,Recover] = 0
 R968: - _f[127,R2] + _r1[127,R2,Do_nothing] + _r1[127,R2,Recover] = 0
 R969: - _f[127,R3] + _r1[127,R3,Do_nothing] + _r1[127,R3,Recover] = 0
 R970: - _f[40,Do_nothing] + _r1[40,Do_nothing,Do_nothing]
   + _r1[40,Do_nothing,Recover] = 0
 R971: - _f[40,R1] + _r1[40,R1,Do_nothing] + _r1[40,R1,Recover] = 0
 R972: - _f[40,R2] + _r1[40,R2,Do_nothing] + _r1[40,R2,Recover] = 0
 R973: - _f[40,R3] + _r1[40,R3,Do_nothing] + _r1[40,R3,Recover] = 0
 R974: - _f[103,Do_nothing] + _r1[103,Do_nothing,Do_nothing]
   + _r1[103,Do_nothing,Recover] = 0
 R975: - _f[103,R1] + _r1[103,R1,Do_nothing] + _r1[103,R1,Recover] = 0
 R976: - _f[103,R2] + _r1[103,R2,Do_nothing] + _r1[103,R2,Recover] = 0
 R977: - _f[103,R3] + _r1[103,R3,Do_nothing] + _r1[103,R3,Recover] = 0
 R978: - _f[118,Do_nothing] + _r1[118,Do_nothing,Do_nothing]
   + _r1[118,Do_nothing,Recover] = 0
 R979: - _f[118,R1] + _r1[118,R1,Do_nothing] + _r1[118,R1,Recover] = 0
 R980: - _f[118,R2] + _r1[118,R2,Do_nothing] + _r1[118,R2,Recover] = 0
 R981: - _f[118,R3] + _r1[118,R3,Do_nothing] + _r1[118,R3,Recover] = 0
 R982: - _f[136,Do_nothing] + _r1[136,Do_nothing,Do_nothing]
   + _r1[136,Do_nothing,Recover] = 0
 R983: - _f[136,R1] + _r1[136,R1,Do_nothing] + _r1[136,R1,Recover] = 0
 R984: - _f[136,R2] + _r1[136,R2,Do_nothing] + _r1[136,R2,Recover] = 0
 R985: - _f[136,R3] + _r1[136,R3,Do_nothing] + _r1[136,R3,Recover] = 0
 R986: - _f[65,Do_nothing] + _r1[65,Do_nothing,Do_nothing]
   + _r1[65,Do_nothing,Recover] = 0
 R987: - _f[65,R1] + _r1[65,R1,Do_nothing] + _r1[65,R1,Recover] = 0
 R988: - _f[65,R2] + _r1[65,R2,Do_nothing] + _r1[65,R2,Recover] = 0
 R989: - _f[65,R3] + _r1[65,R3,Do_nothing] + _r1[65,R3,Recover] = 0
 R990: - _f[62,Do_nothing] + _r1[62,Do_nothing,Do_nothing]
   + _r1[62,Do_nothing,Recover] = 0
 R991: - _f[62,R1] + _r1[62,R1,Do_nothing] + _r1[62,R1,Recover] = 0
 R992: - _f[62,R2] + _r1[62,R2,Do_nothing] + _r1[62,R2,Recover] = 0
 R993: - _f[62,R3] + _r1[62,R3,Do_nothing] + _r1[62,R3,Recover] = 0
 R994: - _f[125,Do_nothing] + _r1[125,Do_nothing,Do_nothing]
   + _r1[125,Do_nothing,Recover] = 0
 R995: - _f[125,R1] + _r1[125,R1,Do_nothing] + _r1[125,R1,Recover] = 0
 R996: - _f[125,R2] + _r1[125,R2,Do_nothing] + _r1[125,R2,Recover] = 0
 R997: - _f[125,R3] + _r1[125,R3,Do_nothing] + _r1[125,R3,Recover] = 0
 R998: - _f[60,Do_nothing] + _r1[60,Do_nothing,Do_nothing]
   + _r1[60,Do_nothing,Recover] = 0
 R999: - _f[60,R1] + _r1[60,R1,Do_nothing] + _r1[60,R1,Recover] = 0
 R1000: - _f[60,R2] + _r1[60,R2,Do_nothing] + _r1[60,R2,Recover] = 0
 R1001: - _f[60,R3] + _r1[60,R3,Do_nothing] + _r1[60,R3,Recover] = 0
 R1002: - _f[17,Do_nothing] + _r1[17,Do_nothing,Do_nothing]
   + _r1[17,Do_nothing,Recover] = 0
 R1003: - _f[17,R1] + _r1[17,R1,Do_nothing] + _r1[17,R1,Recover] = 0
 R1004: - _f[17,R2] + _r1[17,R2,Do_nothing] + _r1[17,R2,Recover] = 0
 R1005: - _f[17,R3] + _r1[17,R3,Do_nothing] + _r1[17,R3,Recover] = 0
 R1006: - _f[53,Do_nothing] + _r1[53,Do_nothing,Do_nothing]
   + _r1[53,Do_nothing,Recover] = 0
 R1007: - _f[53,R1] + _r1[53,R1,Do_nothing] + _r1[53,R1,Recover] = 0
 R1008: - _f[53,R2] + _r1[53,R2,Do_nothing] + _r1[53,R2,Recover] = 0
 R1009: - _f[53,R3] + _r1[53,R3,Do_nothing] + _r1[53,R3,Recover] = 0
 R1010: - _f[131,Do_nothing] + _r1[131,Do_nothing,Do_nothing]
   + _r1[131,Do_nothing,Recover] = 0
 R1011: - _f[131,R1] + _r1[131,R1,Do_nothing] + _r1[131,R1,Recover] = 0
 R1012: - _f[131,R2] + _r1[131,R2,Do_nothing] + _r1[131,R2,Recover] = 0
 R1013: - _f[131,R3] + _r1[131,R3,Do_nothing] + _r1[131,R3,Recover] = 0
 R1014: - _f[55,Do_nothing] + _r1[55,Do_nothing,Do_nothing]
   + _r1[55,Do_nothing,Recover] = 0
 R1015: - _f[55,R1] + _r1[55,R1,Do_nothing] + _r1[55,R1,Recover] = 0
 R1016: - _f[55,R2] + _r1[55,R2,Do_nothing] + _r1[55,R2,Recover] = 0
 R1017: - _f[55,R3] + _r1[55,R3,Do_nothing] + _r1[55,R3,Recover] = 0
 R1018: - _f[58,Do_nothing] + _r1[58,Do_nothing,Do_nothing]
   + _r1[58,Do_nothing,Recover] = 0
 R1019: - _f[58,R1] + _r1[58,R1,Do_nothing] + _r1[58,R1,Recover] = 0
 R1020: - _f[58,R2] + _r1[58,R2,Do_nothing] + _r1[58,R2,Recover] = 0
 R1021: - _f[58,R3] + _r1[58,R3,Do_nothing] + _r1[58,R3,Recover] = 0
 R1022: - _f[107,Do_nothing] + _r1[107,Do_nothing,Do_nothing]
   + _r1[107,Do_nothing,Recover] = 0
 R1023: - _f[107,R1] + _r1[107,R1,Do_nothing] + _r1[107,R1,Recover] = 0
 R1024: - _f[107,R2] + _r1[107,R2,Do_nothing] + _r1[107,R2,Recover] = 0
 R1025: - _f[107,R3] + _r1[107,R3,Do_nothing] + _r1[107,R3,Recover] = 0
 R1026: - _f[4,Do_nothing] + _r1[4,Do_nothing,Do_nothing]
   + _r1[4,Do_nothing,Recover] = 0
 R1027: - _f[4,R1] + _r1[4,R1,Do_nothing] + _r1[4,R1,Recover] = 0
 R1028: - _f[4,R2] + _r1[4,R2,Do_nothing] + _r1[4,R2,Recover] = 0
 R1029: - _f[4,R3] + _r1[4,R3,Do_nothing] + _r1[4,R3,Recover] = 0
 R1030: - _f[149,Do_nothing] + _r1[149,Do_nothing,Do_nothing]
   + _r1[149,Do_nothing,Recover] = 0
 R1031: - _f[149,R1] + _r1[149,R1,Do_nothing] + _r1[149,R1,Recover] = 0
 R1032: - _f[149,R2] + _r1[149,R2,Do_nothing] + _r1[149,R2,Recover] = 0
 R1033: - _f[149,R3] + _r1[149,R3,Do_nothing] + _r1[149,R3,Recover] = 0
 R1034: - _f[63,Do_nothing] + _r1[63,Do_nothing,Do_nothing]
   + _r1[63,Do_nothing,Recover] = 0
 R1035: - _f[63,R1] + _r1[63,R1,Do_nothing] + _r1[63,R1,Recover] = 0
 R1036: - _f[63,R2] + _r1[63,R2,Do_nothing] + _r1[63,R2,Recover] = 0
 R1037: - _f[63,R3] + _r1[63,R3,Do_nothing] + _r1[63,R3,Recover] = 0
 R1038: - _f[57,Do_nothing] + _r1[57,Do_nothing,Do_nothing]
   + _r1[57,Do_nothing,Recover] = 0
 R1039: - _f[57,R1] + _r1[57,R1,Do_nothing] + _r1[57,R1,Recover] = 0
 R1040: - _f[57,R2] + _r1[57,R2,Do_nothing] + _r1[57,R2,Recover] = 0
 R1041: - _f[57,R3] + _r1[57,R3,Do_nothing] + _r1[57,R3,Recover] = 0
 R1042: - _f[23,Do_nothing] + _r1[23,Do_nothing,Do_nothing]
   + _r1[23,Do_nothing,Recover] = 0
 R1043: - _f[23,R1] + _r1[23,R1,Do_nothing] + _r1[23,R1,Recover] = 0
 R1044: - _f[23,R2] + _r1[23,R2,Do_nothing] + _r1[23,R2,Recover] = 0
 R1045: - _f[23,R3] + _r1[23,R3,Do_nothing] + _r1[23,R3,Recover] = 0
 R1046: - _f[117,Do_nothing] + _r1[117,Do_nothing,Do_nothing]
   + _r1[117,Do_nothing,Recover] = 0
 R1047: - _f[117,R1] + _r1[117,R1,Do_nothing] + _r1[117,R1,Recover] = 0
 R1048: - _f[117,R2] + _r1[117,R2,Do_nothing] + _r1[117,R2,Recover] = 0
 R1049: - _f[117,R3] + _r1[117,R3,Do_nothing] + _r1[117,R3,Recover] = 0
 R1050: - _f[108,Do_nothing] + _r1[108,Do_nothing,Do_nothing]
   + _r1[108,Do_nothing,Recover] = 0
 R1051: - _f[108,R1] + _r1[108,R1,Do_nothing] + _r1[108,R1,Recover] = 0
 R1052: - _f[108,R2] + _r1[108,R2,Do_nothing] + _r1[108,R2,Recover] = 0
 R1053: - _f[108,R3] + _r1[108,R3,Do_nothing] + _r1[108,R3,Recover] = 0
 R1054: - _f[138,Do_nothing] + _r1[138,Do_nothing,Do_nothing]
   + _r1[138,Do_nothing,Recover] = 0
 R1055: - _f[138,R1] + _r1[138,R1,Do_nothing] + _r1[138,R1,Recover] = 0
 R1056: - _f[138,R2] + _r1[138,R2,Do_nothing] + _r1[138,R2,Recover] = 0
 R1057: - _f[138,R3] + _r1[138,R3,Do_nothing] + _r1[138,R3,Recover] = 0
 R1058: - _f[6,Do_nothing] + _r1[6,Do_nothing,Do_nothing]
   + _r1[6,Do_nothing,Recover] = 0
 R1059: - _f[6,R1] + _r1[6,R1,Do_nothing] + _r1[6,R1,Recover] = 0
 R1060: - _f[6,R2] + _r1[6,R2,Do_nothing] + _r1[6,R2,Recover] = 0
 R1061: - _f[6,R3] + _r1[6,R3,Do_nothing] + _r1[6,R3,Recover] = 0
 R1062: - _f[86,Do_nothing] + _r1[86,Do_nothing,Do_nothing]
   + _r1[86,Do_nothing,Recover] = 0
 R1063: - _f[86,R1] + _r1[86,R1,Do_nothing] + _r1[86,R1,Recover] = 0
 R1064: - _f[86,R2] + _r1[86,R2,Do_nothing] + _r1[86,R2,Recover] = 0
 R1065: - _f[86,R3] + _r1[86,R3,Do_nothing] + _r1[86,R3,Recover] = 0
 R1066: - _f[121,Do_nothing] + _r1[121,Do_nothing,Do_nothing]
   + _r1[121,Do_nothing,Recover] = 0
 R1067: - _f[121,R1] + _r1[121,R1,Do_nothing] + _r1[121,R1,Recover] = 0
 R1068: - _f[121,R2] + _r1[121,R2,Do_nothing] + _r1[121,R2,Recover] = 0
 R1069: - _f[121,R3] + _r1[121,R3,Do_nothing] + _r1[121,R3,Recover] = 0
 R1070: - _f[145,Do_nothing] + _r1[145,Do_nothing,Do_nothing]
   + _r1[145,Do_nothing,Recover] = 0
 R1071: - _f[145,R1] + _r1[145,R1,Do_nothing] + _r1[145,R1,Recover] = 0
 R1072: - _f[145,R2] + _r1[145,R2,Do_nothing] + _r1[145,R2,Recover] = 0
 R1073: - _f[145,R3] + _r1[145,R3,Do_nothing] + _r1[145,R3,Recover] = 0
 R1074: - _f[99,Do_nothing] + _r1[99,Do_nothing,Do_nothing]
   + _r1[99,Do_nothing,Recover] = 0
 R1075: - _f[99,R1] + _r1[99,R1,Do_nothing] + _r1[99,R1,Recover] = 0
 R1076: - _f[99,R2] + _r1[99,R2,Do_nothing] + _r1[99,R2,Recover] = 0
 R1077: - _f[99,R3] + _r1[99,R3,Do_nothing] + _r1[99,R3,Recover] = 0
 R1078: - _f[21,Do_nothing] + _r1[21,Do_nothing,Do_nothing]
   + _r1[21,Do_nothing,Recover] = 0
 R1079: - _f[21,R1] + _r1[21,R1,Do_nothing] + _r1[21,R1,Recover] = 0
 R1080: - _f[21,R2] + _r1[21,R2,Do_nothing] + _r1[21,R2,Recover] = 0
 R1081: - _f[21,R3] + _r1[21,R3,Do_nothing] + _r1[21,R3,Recover] = 0
 R1082: - _f[42,Do_nothing] + _r1[42,Do_nothing,Do_nothing]
   + _r1[42,Do_nothing,Recover] = 0
 R1083: - _f[42,R1] + _r1[42,R1,Do_nothing] + _r1[42,R1,Recover] = 0
 R1084: - _f[42,R2] + _r1[42,R2,Do_nothing] + _r1[42,R2,Recover] = 0
 R1085: - _f[42,R3] + _r1[42,R3,Do_nothing] + _r1[42,R3,Recover] = 0
 R1086: - _f[98,Do_nothing] + _r1[98,Do_nothing,Do_nothing]
   + _r1[98,Do_nothing,Recover] = 0
 R1087: - _f[98,R1] + _r1[98,R1,Do_nothing] + _r1[98,R1,Recover] = 0
 R1088: - _f[98,R2] + _r1[98,R2,Do_nothing] + _r1[98,R2,Recover] = 0
 R1089: - _f[98,R3] + _r1[98,R3,Do_nothing] + _r1[98,R3,Recover] = 0
 R1090: - _f[100,Do_nothing] + _r1[100,Do_nothing,Do_nothing]
   + _r1[100,Do_nothing,Recover] = 0
 R1091: - _f[100,R1] + _r1[100,R1,Do_nothing] + _r1[100,R1,Recover] = 0
 R1092: - _f[100,R2] + _r1[100,R2,Do_nothing] + _r1[100,R2,Recover] = 0
 R1093: - _f[100,R3] + _r1[100,R3,Do_nothing] + _r1[100,R3,Recover] = 0
 R1094: - _f[76,Do_nothing] + _r1[76,Do_nothing,Do_nothing]
   + _r1[76,Do_nothing,Recover] = 0
 R1095: - _f[76,R1] + _r1[76,R1,Do_nothing] + _r1[76,R1,Recover] = 0
 R1096: - _f[76,R2] + _r1[76,R2,Do_nothing] + _r1[76,R2,Recover] = 0
 R1097: - _f[76,R3] + _r1[76,R3,Do_nothing] + _r1[76,R3,Recover] = 0
 R1098: - _f[102,Do_nothing] + _r1[102,Do_nothing,Do_nothing]
   + _r1[102,Do_nothing,Recover] = 0
 R1099: - _f[102,R1] + _r1[102,R1,Do_nothing] + _r1[102,R1,Recover] = 0
 R1100: - _f[102,R2] + _r1[102,R2,Do_nothing] + _r1[102,R2,Recover] = 0
 R1101: - _f[102,R3] + _r1[102,R3,Do_nothing] + _r1[102,R3,Recover] = 0
 R1102: - _f[141,Do_nothing] + _r1[141,Do_nothing,Do_nothing]
   + _r1[141,Do_nothing,Recover] = 0
 R1103: - _f[141,R1] + _r1[141,R1,Do_nothing] + _r1[141,R1,Recover] = 0
 R1104: - _f[141,R2] + _r1[141,R2,Do_nothing] + _r1[141,R2,Recover] = 0
 R1105: - _f[141,R3] + _r1[141,R3,Do_nothing] + _r1[141,R3,Recover] = 0
 R1106: - _f[146,Do_nothing] + _r1[146,Do_nothing,Do_nothing]
   + _r1[146,Do_nothing,Recover] = 0
 R1107: - _f[146,R1] + _r1[146,R1,Do_nothing] + _r1[146,R1,Recover] = 0
 R1108: - _f[146,R2] + _r1[146,R2,Do_nothing] + _r1[146,R2,Recover] = 0
 R1109: - _f[146,R3] + _r1[146,R3,Do_nothing] + _r1[146,R3,Recover] = 0
 R1110: - _f[94,Do_nothing] + _r1[94,Do_nothing,Do_nothing]
   + _r1[94,Do_nothing,Recover] = 0
 R1111: - _f[94,R1] + _r1[94,R1,Do_nothing] + _r1[94,R1,Recover] = 0
 R1112: - _f[94,R2] + _r1[94,R2,Do_nothing] + _r1[94,R2,Recover] = 0
 R1113: - _f[94,R3] + _r1[94,R3,Do_nothing] + _r1[94,R3,Recover] = 0
 R1114: - _f[79,Do_nothing] + _r1[79,Do_nothing,Do_nothing]
   + _r1[79,Do_nothing,Recover] = 0
 R1115: - _f[79,R1] + _r1[79,R1,Do_nothing] + _r1[79,R1,Recover] = 0
 R1116: - _f[79,R2] + _r1[79,R2,Do_nothing] + _r1[79,R2,Recover] = 0
 R1117: - _f[79,R3] + _r1[79,R3,Do_nothing] + _r1[79,R3,Recover] = 0
 R1118: - _f[2,Do_nothing] + _r1[2,Do_nothing,Do_nothing]
   + _r1[2,Do_nothing,Recover] = 0
 R1119: - _f[2,R1] + _r1[2,R1,Do_nothing] + _r1[2,R1,Recover] = 0
 R1120: - _f[2,R2] + _r1[2,R2,Do_nothing] + _r1[2,R2,Recover] = 0
 R1121: - _f[2,R3] + _r1[2,R3,Do_nothing] + _r1[2,R3,Recover] = 0
 R1122: - _f[140,Do_nothing] + _r1[140,Do_nothing,Do_nothing]
   + _r1[140,Do_nothing,Recover] = 0
 R1123: - _f[140,R1] + _r1[140,R1,Do_nothing] + _r1[140,R1,Recover] = 0
 R1124: - _f[140,R2] + _r1[140,R2,Do_nothing] + _r1[140,R2,Recover] = 0
 R1125: - _f[140,R3] + _r1[140,R3,Do_nothing] + _r1[140,R3,Recover] = 0
 R1126: - _f[77,Do_nothing] + _r1[77,Do_nothing,Do_nothing]
   + _r1[77,Do_nothing,Recover] = 0
 R1127: - _f[77,R1] + _r1[77,R1,Do_nothing] + _r1[77,R1,Recover] = 0
 R1128: - _f[77,R2] + _r1[77,R2,Do_nothing] + _r1[77,R2,Recover] = 0
 R1129: - _f[77,R3] + _r1[77,R3,Do_nothing] + _r1[77,R3,Recover] = 0
 R1130: - _f[24,Do_nothing] + _r1[24,Do_nothing,Do_nothing]
   + _r1[24,Do_nothing,Recover] = 0
 R1131: - _f[24,R1] + _r1[24,R1,Do_nothing] + _r1[24,R1,Recover] = 0
 R1132: - _f[24,R2] + _r1[24,R2,Do_nothing] + _r1[24,R2,Recover] = 0
 R1133: - _f[24,R3] + _r1[24,R3,Do_nothing] + _r1[24,R3,Recover] = 0
 R1134: - _f[66,Do_nothing] + _r1[66,Do_nothing,Do_nothing]
   + _r1[66,Do_nothing,Recover] = 0
 R1135: - _f[66,R1] + _r1[66,R1,Do_nothing] + _r1[66,R1,Recover] = 0
 R1136: - _f[66,R2] + _r1[66,R2,Do_nothing] + _r1[66,R2,Recover] = 0
 R1137: - _f[66,R3] + _r1[66,R3,Do_nothing] + _r1[66,R3,Recover] = 0
 R1138: - _f[8,Do_nothing] + _r1[8,Do_nothing,Do_nothing]
   + _r1[8,Do_nothing,Recover] = 0
 R1139: - _f[8,R1] + _r1[8,R1,Do_nothing] + _r1[8,R1,Recover] = 0
 R1140: - _f[8,R2] + _r1[8,R2,Do_nothing] + _r1[8,R2,Recover] = 0
 R1141: - _f[8,R3] + _r1[8,R3,Do_nothing] + _r1[8,R3,Recover] = 0
 R1142: - _f[43,Do_nothing] + _r1[43,Do_nothing,Do_nothing]
   + _r1[43,Do_nothing,Recover] = 0
 R1143: - _f[43,R1] + _r1[43,R1,Do_nothing] + _r1[43,R1,Recover] = 0
 R1144: - _f[43,R2] + _r1[43,R2,Do_nothing] + _r1[43,R2,Recover] = 0
 R1145: - _f[43,R3] + _r1[43,R3,Do_nothing] + _r1[43,R3,Recover] = 0
 R1146: - _f[74,Do_nothing] + _r1[74,Do_nothing,Do_nothing]
   + _r1[74,Do_nothing,Recover] = 0
 R1147: - _f[74,R1] + _r1[74,R1,Do_nothing] + _r1[74,R1,Recover] = 0
 R1148: - _f[74,R2] + _r1[74,R2,Do_nothing] + _r1[74,R2,Recover] = 0
 R1149: - _f[74,R3] + _r1[74,R3,Do_nothing] + _r1[74,R3,Recover] = 0
 R1150: - _f[35,Do_nothing] + _r1[35,Do_nothing,Do_nothing]
   + _r1[35,Do_nothing,Recover] = 0
 R1151: - _f[35,R1] + _r1[35,R1,Do_nothing] + _r1[35,R1,Recover] = 0
 R1152: - _f[35,R2] + _r1[35,R2,Do_nothing] + _r1[35,R2,Recover] = 0
 R1153: - _f[35,R3] + _r1[35,R3,Do_nothing] + _r1[35,R3,Recover] = 0
 R1154: - _f[26,Do_nothing] + _r1[26,Do_nothing,Do_nothing]
   + _r1[26,Do_nothing,Recover] = 0
 R1155: - _f[26,R1] + _r1[26,R1,Do_nothing] + _r1[26,R1,Recover] = 0
 R1156: - _f[26,R2] + _r1[26,R2,Do_nothing] + _r1[26,R2,Recover] = 0
 R1157: - _f[26,R3] + _r1[26,R3,Do_nothing] + _r1[26,R3,Recover] = 0
 R1158: - _f[15,Do_nothing] + _r1[15,Do_nothing,Do_nothing]
   + _r1[15,Do_nothing,Recover] = 0
 R1159: - _f[15,R1] + _r1[15,R1,Do_nothing] + _r1[15,R1,Recover] = 0
 R1160: - _f[15,R2] + _r1[15,R2,Do_nothing] + _r1[15,R2,Recover] = 0
 R1161: - _f[15,R3] + _r1[15,R3,Do_nothing] + _r1[15,R3,Recover] = 0
 R1162: - _f[56,Do_nothing] + _r1[56,Do_nothing,Do_nothing]
   + _r1[56,Do_nothing,Recover] = 0
 R1163: - _f[56,R1] + _r1[56,R1,Do_nothing] + _r1[56,R1,Recover] = 0
 R1164: - _f[56,R2] + _r1[56,R2,Do_nothing] + _r1[56,R2,Recover] = 0
 R1165: - _f[56,R3] + _r1[56,R3,Do_nothing] + _r1[56,R3,Recover] = 0
 R1166: - _f[88,Do_nothing] + _r1[88,Do_nothing,Do_nothing]
   + _r1[88,Do_nothing,Recover] = 0
 R1167: - _f[88,R1] + _r1[88,R1,Do_nothing] + _r1[88,R1,Recover] = 0
 R1168: - _f[88,R2] + _r1[88,R2,Do_nothing] + _r1[88,R2,Recover] = 0
 R1169: - _f[88,R3] + _r1[88,R3,Do_nothing] + _r1[88,R3,Recover] = 0
 R1170: - _f[142,Do_nothing] + _r1[142,Do_nothing,Do_nothing]
   + _r1[142,Do_nothing,Recover] = 0
 R1171: - _f[142,R1] + _r1[142,R1,Do_nothing] + _r1[142,R1,Recover] = 0
 R1172: - _f[142,R2] + _r1[142,R2,Do_nothing] + _r1[142,R2,Recover] = 0
 R1173: - _f[142,R3] + _r1[142,R3,Do_nothing] + _r1[142,R3,Recover] = 0
 R1174: - _f[113,Do_nothing] + _r1[113,Do_nothing,Do_nothing]
   + _r1[113,Do_nothing,Recover] = 0
 R1175: - _f[113,R1] + _r1[113,R1,Do_nothing] + _r1[113,R1,Recover] = 0
 R1176: - _f[113,R2] + _r1[113,R2,Do_nothing] + _r1[113,R2,Recover] = 0
 R1177: - _f[113,R3] + _r1[113,R3,Do_nothing] + _r1[113,R3,Recover] = 0
 R1178: - _f[52,Do_nothing] + _r1[52,Do_nothing,Do_nothing]
   + _r1[52,Do_nothing,Recover] = 0
 R1179: - _f[52,R1] + _r1[52,R1,Do_nothing] + _r1[52,R1,Recover] = 0
 R1180: - _f[52,R2] + _r1[52,R2,Do_nothing] + _r1[52,R2,Recover] = 0
 R1181: - _f[52,R3] + _r1[52,R3,Do_nothing] + _r1[52,R3,Recover] = 0
 R1182: - _f[37,Do_nothing] + _r1[37,Do_nothing,Do_nothing]
   + _r1[37,Do_nothing,Recover] = 0
 R1183: - _f[37,R1] + _r1[37,R1,Do_nothing] + _r1[37,R1,Recover] = 0
 R1184: - _f[37,R2] + _r1[37,R2,Do_nothing] + _r1[37,R2,Recover] = 0
 R1185: - _f[37,R3] + _r1[37,R3,Do_nothing] + _r1[37,R3,Recover] = 0
 R1186: - _f[78,Do_nothing] + _r1[78,Do_nothing,Do_nothing]
   + _r1[78,Do_nothing,Recover] = 0
 R1187: - _f[78,R1] + _r1[78,R1,Do_nothing] + _r1[78,R1,Recover] = 0
 R1188: - _f[78,R2] + _r1[78,R2,Do_nothing] + _r1[78,R2,Recover] = 0
 R1189: - _f[78,R3] + _r1[78,R3,Do_nothing] + _r1[78,R3,Recover] = 0
 R1190: - _f[132,Do_nothing] + _r1[132,Do_nothing,Do_nothing]
   + _r1[132,Do_nothing,Recover] = 0
 R1191: - _f[132,R1] + _r1[132,R1,Do_nothing] + _r1[132,R1,Recover] = 0
 R1192: - _f[132,R2] + _r1[132,R2,Do_nothing] + _r1[132,R2,Recover] = 0
 R1193: - _f[132,R3] + _r1[132,R3,Do_nothing] + _r1[132,R3,Recover] = 0
 R1194: - _f[50,Do_nothing] + _r1[50,Do_nothing,Do_nothing]
   + _r1[50,Do_nothing,Recover] = 0
 R1195: - _f[50,R1] + _r1[50,R1,Do_nothing] + _r1[50,R1,Recover] = 0
 R1196: - _f[50,R2] + _r1[50,R2,Do_nothing] + _r1[50,R2,Recover] = 0
 R1197: - _f[50,R3] + _r1[50,R3,Do_nothing] + _r1[50,R3,Recover] = 0
 R1198: - _f[144,Do_nothing] + _r1[144,Do_nothing,Do_nothing]
   + _r1[144,Do_nothing,Recover] = 0
 R1199: - _f[144,R1] + _r1[144,R1,Do_nothing] + _r1[144,R1,Recover] = 0
 R1200: - _f[144,R2] + _r1[144,R2,Do_nothing] + _r1[144,R2,Recover] = 0
 R1201: - _f[144,R3] + _r1[144,R3,Do_nothing] + _r1[144,R3,Recover] = 0
 R1202: - _f[96,Do_nothing] + _r1[96,Do_nothing,Do_nothing]
   + _r1[96,Do_nothing,Recover] = 0
 R1203: - _f[96,R1] + _r1[96,R1,Do_nothing] + _r1[96,R1,Recover] = 0
 R1204: - _f[96,R2] + _r1[96,R2,Do_nothing] + _r1[96,R2,Recover] = 0
 R1205: - _f[96,R3] + _r1[96,R3,Do_nothing] + _r1[96,R3,Recover] = 0
 R1206: - _f[120,Do_nothing] + _r1[120,Do_nothing,Do_nothing]
   + _r1[120,Do_nothing,Recover] = 0
 R1207: - _f[120,R1] + _r1[120,R1,Do_nothing] + _r1[120,R1,Recover] = 0
 R1208: - _f[120,R2] + _r1[120,R2,Do_nothing] + _r1[120,R2,Recover] = 0
 R1209: - _f[120,R3] + _r1[120,R3,Do_nothing] + _r1[120,R3,Recover] = 0
 R1210: - _f[22,Do_nothing] + _r1[22,Do_nothing,Do_nothing]
   + _r1[22,Do_nothing,Recover] = 0
 R1211: - _f[22,R1] + _r1[22,R1,Do_nothing] + _r1[22,R1,Recover] = 0
 R1212: - _f[22,R2] + _r1[22,R2,Do_nothing] + _r1[22,R2,Recover] = 0
 R1213: - _f[22,R3] + _r1[22,R3,Do_nothing] + _r1[22,R3,Recover] = 0
 R1214: - _f[84,Do_nothing] + _r1[84,Do_nothing,Do_nothing]
   + _r1[84,Do_nothing,Recover] = 0
 R1215: - _f[84,R1] + _r1[84,R1,Do_nothing] + _r1[84,R1,Recover] = 0
 R1216: - _f[84,R2] + _r1[84,R2,Do_nothing] + _r1[84,R2,Recover] = 0
 R1217: - _f[84,R3] + _r1[84,R3,Do_nothing] + _r1[84,R3,Recover] = 0
 R1218: - _f[85,Do_nothing] + _r1[85,Do_nothing,Do_nothing]
   + _r1[85,Do_nothing,Recover] = 0
 R1219: - _f[85,R1] + _r1[85,R1,Do_nothing] + _r1[85,R1,Recover] = 0
 R1220: - _f[85,R2] + _r1[85,R2,Do_nothing] + _r1[85,R2,Recover] = 0
 R1221: - _f[85,R3] + _r1[85,R3,Do_nothing] + _r1[85,R3,Recover] = 0
 R1222: - _f[16,Do_nothing] + _r1[16,Do_nothing,Do_nothing]
   + _r1[16,Do_nothing,Recover] = 0
 R1223: - _f[16,R1] + _r1[16,R1,Do_nothing] + _r1[16,R1,Recover] = 0
 R1224: - _f[16,R2] + _r1[16,R2,Do_nothing] + _r1[16,R2,Recover] = 0
 R1225: - _f[16,R3] + _r1[16,R3,Do_nothing] + _r1[16,R3,Recover] = 0
 R1226: - _f[20,Do_nothing] + _r1[20,Do_nothing,Do_nothing]
   + _r1[20,Do_nothing,Recover] = 0
 R1227: - _f[20,R1] + _r1[20,R1,Do_nothing] + _r1[20,R1,Recover] = 0
 R1228: - _f[20,R2] + _r1[20,R2,Do_nothing] + _r1[20,R2,Recover] = 0
 R1229: - _f[20,R3] + _r1[20,R3,Do_nothing] + _r1[20,R3,Recover] = 0
 R1230: - _f[128,Do_nothing] + _r1[128,Do_nothing,Do_nothing]
   + _r1[128,Do_nothing,Recover] = 0
 R1231: - _f[128,R1] + _r1[128,R1,Do_nothing] + _r1[128,R1,Recover] = 0
 R1232: - _f[128,R2] + _r1[128,R2,Do_nothing] + _r1[128,R2,Recover] = 0
 R1233: - _f[128,R3] + _r1[128,R3,Do_nothing] + _r1[128,R3,Recover] = 0
 R1234: - _f[54,Do_nothing] + _r1[54,Do_nothing,Do_nothing]
   + _r1[54,Do_nothing,Recover] = 0
 R1235: - _f[54,R1] + _r1[54,R1,Do_nothing] + _r1[54,R1,Recover] = 0
 R1236: - _f[54,R2] + _r1[54,R2,Do_nothing] + _r1[54,R2,Recover] = 0
 R1237: - _f[54,R3] + _r1[54,R3,Do_nothing] + _r1[54,R3,Recover] = 0
 R1238: - _f[29,Do_nothing] + _r1[29,Do_nothing,Do_nothing]
   + _r1[29,Do_nothing,Recover] = 0
 R1239: - _f[29,R1] + _r1[29,R1,Do_nothing] + _r1[29,R1,Recover] = 0
 R1240: - _f[29,R2] + _r1[29,R2,Do_nothing] + _r1[29,R2,Recover] = 0
 R1241: - _f[29,R3] + _r1[29,R3,Do_nothing] + _r1[29,R3,Recover] = 0
 R1242: - _f[14,Do_nothing] + _r1[14,Do_nothing,Do_nothing]
   + _r1[14,Do_nothing,Recover] = 0
 R1243: - _f[14,R1] + _r1[14,R1,Do_nothing] + _r1[14,R1,Recover] = 0
 R1244: - _f[14,R2] + _r1[14,R2,Do_nothing] + _r1[14,R2,Recover] = 0
 R1245: - _f[14,R3] + _r1[14,R3,Do_nothing] + _r1[14,R3,Recover] = 0
 R1246: - _f[38,Do_nothing] + _r1[38,Do_nothing,Do_nothing]
   + _r1[38,Do_nothing,Recover] = 0
 R1247: - _f[38,R1] + _r1[38,R1,Do_nothing] + _r1[38,R1,Recover] = 0
 R1248: - _f[38,R2] + _r1[38,R2,Do_nothing] + _r1[38,R2,Recover] = 0
 R1249: - _f[38,R3] + _r1[38,R3,Do_nothing] + _r1[38,R3,Recover] = 0
 R1250: - _f[70,Do_nothing] + _r1[70,Do_nothing,Do_nothing]
   + _r1[70,Do_nothing,Recover] = 0
 R1251: - _f[70,R1] + _r1[70,R1,Do_nothing] + _r1[70,R1,Recover] = 0
 R1252: - _f[70,R2] + _r1[70,R2,Do_nothing] + _r1[70,R2,Recover] = 0
 R1253: - _f[70,R3] + _r1[70,R3,Do_nothing] + _r1[70,R3,Recover] = 0
 R1254: - _f[143,Do_nothing] + _r1[143,Do_nothing,Do_nothing]
   + _r1[143,Do_nothing,Recover] = 0
 R1255: - _f[143,R1] + _r1[143,R1,Do_nothing] + _r1[143,R1,Recover] = 0
 R1256: - _f[143,R2] + _r1[143,R2,Do_nothing] + _r1[143,R2,Recover] = 0
 R1257: - _f[143,R3] + _r1[143,R3,Do_nothing] + _r1[143,R3,Recover] = 0
 R1258: - _f[48,Do_nothing] + _r1[48,Do_nothing,Do_nothing]
   + _r1[48,Do_nothing,Recover] = 0
 R1259: - _f[48,R1] + _r1[48,R1,Do_nothing] + _r1[48,R1,Recover] = 0
 R1260: - _f[48,R2] + _r1[48,R2,Do_nothing] + _r1[48,R2,Recover] = 0
 R1261: - _f[48,R3] + _r1[48,R3,Do_nothing] + _r1[48,R3,Recover] = 0
 R1262: - _f[112,Do_nothing] + _r1[112,Do_nothing,Do_nothing]
   + _r1[112,Do_nothing,Recover] = 0
 R1263: - _f[112,R1] + _r1[112,R1,Do_nothing] + _r1[112,R1,Recover] = 0
 R1264: - _f[112,R2] + _r1[112,R2,Do_nothing] + _r1[112,R2,Recover] = 0
 R1265: - _f[112,R3] + _r1[112,R3,Do_nothing] + _r1[112,R3,Recover] = 0
 R1266: - _f[89,Do_nothing] + _r1[89,Do_nothing,Do_nothing]
   + _r1[89,Do_nothing,Recover] = 0
 R1267: - _f[89,R1] + _r1[89,R1,Do_nothing] + _r1[89,R1,Recover] = 0
 R1268: - _f[89,R2] + _r1[89,R2,Do_nothing] + _r1[89,R2,Recover] = 0
 R1269: - _f[89,R3] + _r1[89,R3,Do_nothing] + _r1[89,R3,Recover] = 0
 R1270: - _f[129,Do_nothing] + _r1[129,Do_nothing,Do_nothing]
   + _r1[129,Do_nothing,Recover] = 0
 R1271: - _f[129,R1] + _r1[129,R1,Do_nothing] + _r1[129,R1,Recover] = 0
 R1272: - _f[129,R2] + _r1[129,R2,Do_nothing] + _r1[129,R2,Recover] = 0
 R1273: - _f[129,R3] + _r1[129,R3,Do_nothing] + _r1[129,R3,Recover] = 0
 R1274: - _f[68,Do_nothing] + _r1[68,Do_nothing,Do_nothing]
   + _r1[68,Do_nothing,Recover] = 0
 R1275: - _f[68,R1] + _r1[68,R1,Do_nothing] + _r1[68,R1,Recover] = 0
 R1276: - _f[68,R2] + _r1[68,R2,Do_nothing] + _r1[68,R2,Recover] = 0
 R1277: - _f[68,R3] + _r1[68,R3,Do_nothing] + _r1[68,R3,Recover] = 0
 R1278: - _f[115,Do_nothing] + _r1[115,Do_nothing,Do_nothing]
   + _r1[115,Do_nothing,Recover] = 0
 R1279: - _f[115,R1] + _r1[115,R1,Do_nothing] + _r1[115,R1,Recover] = 0
 R1280: - _f[115,R2] + _r1[115,R2,Do_nothing] + _r1[115,R2,Recover] = 0
 R1281: - _f[115,R3] + _r1[115,R3,Do_nothing] + _r1[115,R3,Recover] = 0
 R1282: - _f[111,Do_nothing] + _r1[111,Do_nothing,Do_nothing]
   + _r1[111,Do_nothing,Recover] = 0
 R1283: - _f[111,R1] + _r1[111,R1,Do_nothing] + _r1[111,R1,Recover] = 0
 R1284: - _f[111,R2] + _r1[111,R2,Do_nothing] + _r1[111,R2,Recover] = 0
 R1285: - _f[111,R3] + _r1[111,R3,Do_nothing] + _r1[111,R3,Recover] = 0
 R1286: - _f[9,Do_nothing] + _r1[9,Do_nothing,Do_nothing]
   + _r1[9,Do_nothing,Recover] = 0
 R1287: - _f[9,R1] + _r1[9,R1,Do_nothing] + _r1[9,R1,Recover] = 0
 R1288: - _f[9,R2] + _r1[9,R2,Do_nothing] + _r1[9,R2,Recover] = 0
 R1289: - _f[9,R3] + _r1[9,R3,Do_nothing] + _r1[9,R3,Recover] = 0
 R1290: - _f[30,Do_nothing] + _r1[30,Do_nothing,Do_nothing]
   + _r1[30,Do_nothing,Recover] = 0
 R1291: - _f[30,R1] + _r1[30,R1,Do_nothing] + _r1[30,R1,Recover] = 0
 R1292: - _f[30,R2] + _r1[30,R2,Do_nothing] + _r1[30,R2,Recover] = 0
 R1293: - _f[30,R3] + _r1[30,R3,Do_nothing] + _r1[30,R3,Recover] = 0
 R1294: - _f[5,Do_nothing] + _r1[5,Do_nothing,Do_nothing]
   + _r1[5,Do_nothing,Recover] = 0
 R1295: - _f[5,R1] + _r1[5,R1,Do_nothing] + _r1[5,R1,Recover] = 0
 R1296: - _f[5,R2] + _r1[5,R2,Do_nothing] + _r1[5,R2,Recover] = 0
 R1297: - _f[5,R3] + _r1[5,R3,Do_nothing] + _r1[5,R3,Recover] = 0
 R1298: - _f[67,Do_nothing] + _r1[67,Do_nothing,Do_nothing]
   + _r1[67,Do_nothing,Recover] = 0
 R1299: - _f[67,R1] + _r1[67,R1,Do_nothing] + _r1[67,R1,Recover] = 0
 R1300: - _f[67,R2] + _r1[67,R2,Do_nothing] + _r1[67,R2,Recover] = 0
 R1301: - _f[67,R3] + _r1[67,R3,Do_nothing] + _r1[67,R3,Recover] = 0
 R1302: - _f[92,Do_nothing] + _r1[92,Do_nothing,Do_nothing]
   + _r1[92,Do_nothing,Recover] = 0
 R1303: - _f[92,R1] + _r1[92,R1,Do_nothing] + _r1[92,R1,Recover] = 0
 R1304: - _f[92,R2] + _r1[92,R2,Do_nothing] + _r1[92,R2,Recover] = 0
 R1305: - _f[92,R3] + _r1[92,R3,Do_nothing] + _r1[92,R3,Recover] = 0
 R1306: - _f[122,Do_nothing] + _r1[122,Do_nothing,Do_nothing]
   + _r1[122,Do_nothing,Recover] = 0
 R1307: - _f[122,R1] + _r1[122,R1,Do_nothing] + _r1[122,R1,Recover] = 0
 R1308: - _f[122,R2] + _r1[122,R2,Do_nothing] + _r1[122,R2,Recover] = 0
 R1309: - _f[122,R3] + _r1[122,R3,Do_nothing] + _r1[122,R3,Recover] = 0
 R1310: - _f[133,Do_nothing] + _r1[133,Do_nothing,Do_nothing]
   + _r1[133,Do_nothing,Recover] = 0
 R1311: - _f[133,R1] + _r1[133,R1,Do_nothing] + _r1[133,R1,Recover] = 0
 R1312: - _f[133,R2] + _r1[133,R2,Do_nothing] + _r1[133,R2,Recover] = 0
 R1313: - _f[133,R3] + _r1[133,R3,Do_nothing] + _r1[133,R3,Recover] = 0
 R1314: - _f[135,Do_nothing] + _r1[135,Do_nothing,Do_nothing]
   + _r1[135,Do_nothing,Recover] = 0
 R1315: - _f[135,R1] + _r1[135,R1,Do_nothing] + _r1[135,R1,Recover] = 0
 R1316: - _f[135,R2] + _r1[135,R2,Do_nothing] + _r1[135,R2,Recover] = 0
 R1317: - _f[135,R3] + _r1[135,R3,Do_nothing] + _r1[135,R3,Recover] = 0
 R1318: - _f[73,Do_nothing] + _r1[73,Do_nothing,Do_nothing]
   + _r1[73,Do_nothing,Recover] = 0
 R1319: - _f[73,R1] + _r1[73,R1,Do_nothing] + _r1[73,R1,Recover] = 0
 R1320: - _f[73,R2] + _r1[73,R2,Do_nothing] + _r1[73,R2,Recover] = 0
 R1321: - _f[73,R3] + _r1[73,R3,Do_nothing] + _r1[73,R3,Recover] = 0
 R1322: - _f[27,Do_nothing] + _r1[27,Do_nothing,Do_nothing]
   + _r1[27,Do_nothing,Recover] = 0
 R1323: - _f[27,R1] + _r1[27,R1,Do_nothing] + _r1[27,R1,Recover] = 0
 R1324: - _f[27,R2] + _r1[27,R2,Do_nothing] + _r1[27,R2,Recover] = 0
 R1325: - _f[27,R3] + _r1[27,R3,Do_nothing] + _r1[27,R3,Recover] = 0
 R1326: - _f[32,Do_nothing] + _r1[32,Do_nothing,Do_nothing]
   + _r1[32,Do_nothing,Recover] = 0
 R1327: - _f[32,R1] + _r1[32,R1,Do_nothing] + _r1[32,R1,Recover] = 0
 R1328: - _f[32,R2] + _r1[32,R2,Do_nothing] + _r1[32,R2,Recover] = 0
 R1329: - _f[32,R3] + _r1[32,R3,Do_nothing] + _r1[32,R3,Recover] = 0
 R1330: - _f[18,Do_nothing] + _r1[18,Do_nothing,Do_nothing]
   + _r1[18,Do_nothing,Recover] = 0
 R1331: - _f[18,R1] + _r1[18,R1,Do_nothing] + _r1[18,R1,Recover] = 0
 R1332: - _f[18,R2] + _r1[18,R2,Do_nothing] + _r1[18,R2,Recover] = 0
 R1333: - _f[18,R3] + _r1[18,R3,Do_nothing] + _r1[18,R3,Recover] = 0
 R1334: - _f[45,Do_nothing] + _r1[45,Do_nothing,Do_nothing]
   + _r1[45,Do_nothing,Recover] = 0
 R1335: - _f[45,R1] + _r1[45,R1,Do_nothing] + _r1[45,R1,Recover] = 0
 R1336: - _f[45,R2] + _r1[45,R2,Do_nothing] + _r1[45,R2,Recover] = 0
 R1337: - _f[45,R3] + _r1[45,R3,Do_nothing] + _r1[45,R3,Recover] = 0
 R1338: - _f[91,Do_nothing] + _r1[91,Do_nothing,Do_nothing]
   + _r1[91,Do_nothing,Recover] = 0
 R1339: - _f[91,R1] + _r1[91,R1,Do_nothing] + _r1[91,R1,Recover] = 0
 R1340: - _f[91,R2] + _r1[91,R2,Do_nothing] + _r1[91,R2,Recover] = 0
 R1341: - _f[91,R3] + _r1[91,R3,Do_nothing] + _r1[91,R3,Recover] = 0
 R1342: - _f[101,Do_nothing] + _r1[101,Do_nothing,Do_nothing]
   + _r1[101,Do_nothing,Recover] = 0
 R1343: - _f[101,R1] + _r1[101,R1,Do_nothing] + _r1[101,R1,Recover] = 0
 R1344: - _f[101,R2] + _r1[101,R2,Do_nothing] + _r1[101,R2,Recover] = 0
 R1345: - _f[101,R3] + _r1[101,R3,Do_nothing] + _r1[101,R3,Recover] = 0
 R1346: - _f[49,Do_nothing] + _r1[49,Do_nothing,Do_nothing]
   + _r1[49,Do_nothing,Recover] = 0
 R1347: - _f[49,R1] + _r1[49,R1,Do_nothing] + _r1[49,R1,Recover] = 0
 R1348: - _f[49,R2] + _r1[49,R2,Do_nothing] + _r1[49,R2,Recover] = 0
 R1349: - _f[49,R3] + _r1[49,R3,Do_nothing] + _r1[49,R3,Recover] = 0
 R1350: - _f[83,Do_nothing] + _r1[83,Do_nothing,Do_nothing]
   + _r1[83,Do_nothing,Recover] = 0
 R1351: - _f[83,R1] + _r1[83,R1,Do_nothing] + _r1[83,R1,Recover] = 0
 R1352: - _f[83,R2] + _r1[83,R2,Do_nothing] + _r1[83,R2,Recover] = 0
 R1353: - _f[83,R3] + _r1[83,R3,Do_nothing] + _r1[83,R3,Recover] = 0
Bounds
 _Theta free
 _r0[105,Do_nothing,Do_nothing] <= 1
 _r0[105,Do_nothing,Recover] <= 1
 _r0[105,R1,Do_nothing] <= 1
 _r0[105,R1,Recover] <= 1
 _r0[105,R2,Do_nothing] <= 1
 _r0[105,R2,Recover] <= 1
 _r0[105,R3,Do_nothing] <= 1
 _r0[105,R3,Recover] <= 1
 _r0[19,Do_nothing,Do_nothing] <= 1
 _r0[19,Do_nothing,Recover] <= 1
 _r0[19,R1,Do_nothing] <= 1
 _r0[19,R1,Recover] <= 1
 _r0[19,R2,Do_nothing] <= 1
 _r0[19,R2,Recover] <= 1
 _r0[19,R3,Do_nothing] <= 1
 _r0[19,R3,Recover] <= 1
 _r0[150,Do_nothing,Do_nothing] <= 1
 _r0[150,Do_nothing,Recover] <= 1
 _r0[150,R1,Do_nothing] <= 1
 _r0[150,R1,Recover] <= 1
 _r0[150,R2,Do_nothing] <= 1
 _r0[150,R2,Recover] <= 1
 _r0[150,R3,Do_nothing] <= 1
 _r0[150,R3,Recover] <= 1
 _r0[61,Do_nothing,Do_nothing] <= 1
 _r0[61,Do_nothing,Recover] <= 1
 _r0[61,R1,Do_nothing] <= 1
 _r0[61,R1,Recover] <= 1
 _r0[61,R2,Do_nothing] <= 1
 _r0[61,R2,Recover] <= 1
 _r0[61,R3,Do_nothing] <= 1
 _r0[61,R3,Recover] <= 1
 _r0[109,Do_nothing,Do_nothing] <= 1
 _r0[109,Do_nothing,Recover] <= 1
 _r0[109,R1,Do_nothing] <= 1
 _r0[109,R1,Recover] <= 1
 _r0[109,R2,Do_nothing] <= 1
 _r0[109,R2,Recover] <= 1
 _r0[109,R3,Do_nothing] <= 1
 _r0[109,R3,Recover] <= 1
 _r0[126,Do_nothing,Do_nothing] <= 1
 _r0[126,Do_nothing,Recover] <= 1
 _r0[126,R1,Do_nothing] <= 1
 _r0[126,R1,Recover] <= 1
 _r0[126,R2,Do_nothing] <= 1
 _r0[126,R2,Recover] <= 1
 _r0[126,R3,Do_nothing] <= 1
 _r0[126,R3,Recover] <= 1
 _r0[137,Do_nothing,Do_nothing] <= 1
 _r0[137,Do_nothing,Recover] <= 1
 _r0[137,R1,Do_nothing] <= 1
 _r0[137,R1,Recover] <= 1
 _r0[137,R2,Do_nothing] <= 1
 _r0[137,R2,Recover] <= 1
 _r0[137,R3,Do_nothing] <= 1
 _r0[137,R3,Recover] <= 1
 _r0[31,Do_nothing,Do_nothing] <= 1
 _r0[31,Do_nothing,Recover] <= 1
 _r0[31,R1,Do_nothing] <= 1
 _r0[31,R1,Recover] <= 1
 _r0[31,R2,Do_nothing] <= 1
 _r0[31,R2,Recover] <= 1
 _r0[31,R3,Do_nothing] <= 1
 _r0[31,R3,Recover] <= 1
 _r0[1,Do_nothing,Do_nothing] <= 1
 _r0[1,Do_nothing,Recover] <= 1
 _r0[1,R1,Do_nothing] <= 1
 _r0[1,R1,Recover] <= 1
 _r0[1,R2,Do_nothing] <= 1
 _r0[1,R2,Recover] <= 1
 _r0[1,R3,Do_nothing] <= 1
 _r0[1,R3,Recover] <= 1
 _r0[51,Do_nothing,Do_nothing] <= 1
 _r0[51,Do_nothing,Recover] <= 1
 _r0[51,R1,Do_nothing] <= 1
 _r0[51,R1,Recover] <= 1
 _r0[51,R2,Do_nothing] <= 1
 _r0[51,R2,Recover] <= 1
 _r0[51,R3,Do_nothing] <= 1
 _r0[51,R3,Recover] <= 1
 _r0[39,Do_nothing,Do_nothing] <= 1
 _r0[39,Do_nothing,Recover] <= 1
 _r0[39,R1,Do_nothing] <= 1
 _r0[39,R1,Recover] <= 1
 _r0[39,R2,Do_nothing] <= 1
 _r0[39,R2,Recover] <= 1
 _r0[39,R3,Do_nothing] <= 1
 _r0[39,R3,Recover] <= 1
 _r0[81,Do_nothing,Do_nothing] <= 1
 _r0[81,Do_nothing,Recover] <= 1
 _r0[81,R1,Do_nothing] <= 1
 _r0[81,R1,Recover] <= 1
 _r0[81,R2,Do_nothing] <= 1
 _r0[81,R2,Recover] <= 1
 _r0[81,R3,Do_nothing] <= 1
 _r0[81,R3,Recover] <= 1
 _r0[147,Do_nothing,Do_nothing] <= 1
 _r0[147,Do_nothing,Recover] <= 1
 _r0[147,R1,Do_nothing] <= 1
 _r0[147,R1,Recover] <= 1
 _r0[147,R2,Do_nothing] <= 1
 _r0[147,R2,Recover] <= 1
 _r0[147,R3,Do_nothing] <= 1
 _r0[147,R3,Recover] <= 1
 _r0[44,Do_nothing,Do_nothing] <= 1
 _r0[44,Do_nothing,Recover] <= 1
 _r0[44,R1,Do_nothing] <= 1
 _r0[44,R1,Recover] <= 1
 _r0[44,R2,Do_nothing] <= 1
 _r0[44,R2,Recover] <= 1
 _r0[44,R3,Do_nothing] <= 1
 _r0[44,R3,Recover] <= 1
 _r0[97,Do_nothing,Do_nothing] <= 1
 _r0[97,Do_nothing,Recover] <= 1
 _r0[97,R1,Do_nothing] <= 1
 _r0[97,R1,Recover] <= 1
 _r0[97,R2,Do_nothing] <= 1
 _r0[97,R2,Recover] <= 1
 _r0[97,R3,Do_nothing] <= 1
 _r0[97,R3,Recover] <= 1
 _r0[71,Do_nothing,Do_nothing] <= 1
 _r0[71,Do_nothing,Recover] <= 1
 _r0[71,R1,Do_nothing] <= 1
 _r0[71,R1,Recover] <= 1
 _r0[71,R2,Do_nothing] <= 1
 _r0[71,R2,Recover] <= 1
 _r0[71,R3,Do_nothing] <= 1
 _r0[71,R3,Recover] <= 1
 _r0[134,Do_nothing,Do_nothing] <= 1
 _r0[134,Do_nothing,Recover] <= 1
 _r0[134,R1,Do_nothing] <= 1
 _r0[134,R1,Recover] <= 1
 _r0[134,R2,Do_nothing] <= 1
 _r0[134,R2,Recover] <= 1
 _r0[134,R3,Do_nothing] <= 1
 _r0[134,R3,Recover] <= 1
 _r0[11,Do_nothing,Do_nothing] <= 1
 _r0[11,Do_nothing,Recover] <= 1
 _r0[11,R1,Do_nothing] <= 1
 _r0[11,R1,Recover] <= 1
 _r0[11,R2,Do_nothing] <= 1
 _r0[11,R2,Recover] <= 1
 _r0[11,R3,Do_nothing] <= 1
 _r0[11,R3,Recover] <= 1
 _r0[69,Do_nothing,Do_nothing] <= 1
 _r0[69,Do_nothing,Recover] <= 1
 _r0[69,R1,Do_nothing] <= 1
 _r0[69,R1,Recover] <= 1
 _r0[69,R2,Do_nothing] <= 1
 _r0[69,R2,Recover] <= 1
 _r0[69,R3,Do_nothing] <= 1
 _r0[69,R3,Recover] <= 1
 _r0[12,Do_nothing,Do_nothing] <= 1
 _r0[12,Do_nothing,Recover] <= 1
 _r0[12,R1,Do_nothing] <= 1
 _r0[12,R1,Recover] <= 1
 _r0[12,R2,Do_nothing] <= 1
 _r0[12,R2,Recover] <= 1
 _r0[12,R3,Do_nothing] <= 1
 _r0[12,R3,Recover] <= 1
 _r0[87,Do_nothing,Do_nothing] <= 1
 _r0[87,Do_nothing,Recover] <= 1
 _r0[87,R1,Do_nothing] <= 1
 _r0[87,R1,Recover] <= 1
 _r0[87,R2,Do_nothing] <= 1
 _r0[87,R2,Recover] <= 1
 _r0[87,R3,Do_nothing] <= 1
 _r0[87,R3,Recover] <= 1
 _r0[123,Do_nothing,Do_nothing] <= 1
 _r0[123,Do_nothing,Recover] <= 1
 _r0[123,R1,Do_nothing] <= 1
 _r0[123,R1,Recover] <= 1
 _r0[123,R2,Do_nothing] <= 1
 _r0[123,R2,Recover] <= 1
 _r0[123,R3,Do_nothing] <= 1
 _r0[123,R3,Recover] <= 1
 _r0[148,Do_nothing,Do_nothing] <= 1
 _r0[148,Do_nothing,Recover] <= 1
 _r0[148,R1,Do_nothing] <= 1
 _r0[148,R1,Recover] <= 1
 _r0[148,R2,Do_nothing] <= 1
 _r0[148,R2,Recover] <= 1
 _r0[148,R3,Do_nothing] <= 1
 _r0[148,R3,Recover] <= 1
 _r0[41,Do_nothing,Do_nothing] <= 1
 _r0[41,Do_nothing,Recover] <= 1
 _r0[41,R1,Do_nothing] <= 1
 _r0[41,R1,Recover] <= 1
 _r0[41,R2,Do_nothing] <= 1
 _r0[41,R2,Recover] <= 1
 _r0[41,R3,Do_nothing] <= 1
 _r0[41,R3,Recover] <= 1
 _r0[106,Do_nothing,Do_nothing] <= 1
 _r0[106,Do_nothing,Recover] <= 1
 _r0[106,R1,Do_nothing] <= 1
 _r0[106,R1,Recover] <= 1
 _r0[106,R2,Do_nothing] <= 1
 _r0[106,R2,Recover] <= 1
 _r0[106,R3,Do_nothing] <= 1
 _r0[106,R3,Recover] <= 1
 _r0[34,Do_nothing,Do_nothing] <= 1
 _r0[34,Do_nothing,Recover] <= 1
 _r0[34,R1,Do_nothing] <= 1
 _r0[34,R1,Recover] <= 1
 _r0[34,R2,Do_nothing] <= 1
 _r0[34,R2,Recover] <= 1
 _r0[34,R3,Do_nothing] <= 1
 _r0[34,R3,Recover] <= 1
 _r0[114,Do_nothing,Do_nothing] <= 1
 _r0[114,Do_nothing,Recover] <= 1
 _r0[114,R1,Do_nothing] <= 1
 _r0[114,R1,Recover] <= 1
 _r0[114,R2,Do_nothing] <= 1
 _r0[114,R2,Recover] <= 1
 _r0[114,R3,Do_nothing] <= 1
 _r0[114,R3,Recover] <= 1
 _r0[47,Do_nothing,Do_nothing] <= 1
 _r0[47,Do_nothing,Recover] <= 1
 _r0[47,R1,Do_nothing] <= 1
 _r0[47,R1,Recover] <= 1
 _r0[47,R2,Do_nothing] <= 1
 _r0[47,R2,Recover] <= 1
 _r0[47,R3,Do_nothing] <= 1
 _r0[47,R3,Recover] <= 1
 _r0[75,Do_nothing,Do_nothing] <= 1
 _r0[75,Do_nothing,Recover] <= 1
 _r0[75,R1,Do_nothing] <= 1
 _r0[75,R1,Recover] <= 1
 _r0[75,R2,Do_nothing] <= 1
 _r0[75,R2,Recover] <= 1
 _r0[75,R3,Do_nothing] <= 1
 _r0[75,R3,Recover] <= 1
 _r0[119,Do_nothing,Do_nothing] <= 1
 _r0[119,Do_nothing,Recover] <= 1
 _r0[119,R1,Do_nothing] <= 1
 _r0[119,R1,Recover] <= 1
 _r0[119,R2,Do_nothing] <= 1
 _r0[119,R2,Recover] <= 1
 _r0[119,R3,Do_nothing] <= 1
 _r0[119,R3,Recover] <= 1
 _r0[28,Do_nothing,Do_nothing] <= 1
 _r0[28,Do_nothing,Recover] <= 1
 _r0[28,R1,Do_nothing] <= 1
 _r0[28,R1,Recover] <= 1
 _r0[28,R2,Do_nothing] <= 1
 _r0[28,R2,Recover] <= 1
 _r0[28,R3,Do_nothing] <= 1
 _r0[28,R3,Recover] <= 1
 _r0[93,Do_nothing,Do_nothing] <= 1
 _r0[93,Do_nothing,Recover] <= 1
 _r0[93,R1,Do_nothing] <= 1
 _r0[93,R1,Recover] <= 1
 _r0[93,R2,Do_nothing] <= 1
 _r0[93,R2,Recover] <= 1
 _r0[93,R3,Do_nothing] <= 1
 _r0[93,R3,Recover] <= 1
 _r0[59,Do_nothing,Do_nothing] <= 1
 _r0[59,Do_nothing,Recover] <= 1
 _r0[59,R1,Do_nothing] <= 1
 _r0[59,R1,Recover] <= 1
 _r0[59,R2,Do_nothing] <= 1
 _r0[59,R2,Recover] <= 1
 _r0[59,R3,Do_nothing] <= 1
 _r0[59,R3,Recover] <= 1
 _r0[90,Do_nothing,Do_nothing] <= 1
 _r0[90,Do_nothing,Recover] <= 1
 _r0[90,R1,Do_nothing] <= 1
 _r0[90,R1,Recover] <= 1
 _r0[90,R2,Do_nothing] <= 1
 _r0[90,R2,Recover] <= 1
 _r0[90,R3,Do_nothing] <= 1
 _r0[90,R3,Recover] <= 1
 _r0[95,Do_nothing,Do_nothing] <= 1
 _r0[95,Do_nothing,Recover] <= 1
 _r0[95,R1,Do_nothing] <= 1
 _r0[95,R1,Recover] <= 1
 _r0[95,R2,Do_nothing] <= 1
 _r0[95,R2,Recover] <= 1
 _r0[95,R3,Do_nothing] <= 1
 _r0[95,R3,Recover] <= 1
 _r0[3,Do_nothing,Do_nothing] <= 1
 _r0[3,Do_nothing,Recover] <= 1
 _r0[3,R1,Do_nothing] <= 1
 _r0[3,R1,Recover] <= 1
 _r0[3,R2,Do_nothing] <= 1
 _r0[3,R2,Recover] <= 1
 _r0[3,R3,Do_nothing] <= 1
 _r0[3,R3,Recover] <= 1
 _r0[82,Do_nothing,Do_nothing] <= 1
 _r0[82,Do_nothing,Recover] <= 1
 _r0[82,R1,Do_nothing] <= 1
 _r0[82,R1,Recover] <= 1
 _r0[82,R2,Do_nothing] <= 1
 _r0[82,R2,Recover] <= 1
 _r0[82,R3,Do_nothing] <= 1
 _r0[82,R3,Recover] <= 1
 _r0[72,Do_nothing,Do_nothing] <= 1
 _r0[72,Do_nothing,Recover] <= 1
 _r0[72,R1,Do_nothing] <= 1
 _r0[72,R1,Recover] <= 1
 _r0[72,R2,Do_nothing] <= 1
 _r0[72,R2,Recover] <= 1
 _r0[72,R3,Do_nothing] <= 1
 _r0[72,R3,Recover] <= 1
 _r0[46,Do_nothing,Do_nothing] <= 1
 _r0[46,Do_nothing,Recover] <= 1
 _r0[46,R1,Do_nothing] <= 1
 _r0[46,R1,Recover] <= 1
 _r0[46,R2,Do_nothing] <= 1
 _r0[46,R2,Recover] <= 1
 _r0[46,R3,Do_nothing] <= 1
 _r0[46,R3,Recover] <= 1
 _r0[33,Do_nothing,Do_nothing] <= 1
 _r0[33,Do_nothing,Recover] <= 1
 _r0[33,R1,Do_nothing] <= 1
 _r0[33,R1,Recover] <= 1
 _r0[33,R2,Do_nothing] <= 1
 _r0[33,R2,Recover] <= 1
 _r0[33,R3,Do_nothing] <= 1
 _r0[33,R3,Recover] <= 1
 _r0[116,Do_nothing,Do_nothing] <= 1
 _r0[116,Do_nothing,Recover] <= 1
 _r0[116,R1,Do_nothing] <= 1
 _r0[116,R1,Recover] <= 1
 _r0[116,R2,Do_nothing] <= 1
 _r0[116,R2,Recover] <= 1
 _r0[116,R3,Do_nothing] <= 1
 _r0[116,R3,Recover] <= 1
 _r0[13,Do_nothing,Do_nothing] <= 1
 _r0[13,Do_nothing,Recover] <= 1
 _r0[13,R1,Do_nothing] <= 1
 _r0[13,R1,Recover] <= 1
 _r0[13,R2,Do_nothing] <= 1
 _r0[13,R2,Recover] <= 1
 _r0[13,R3,Do_nothing] <= 1
 _r0[13,R3,Recover] <= 1
 _r0[104,Do_nothing,Do_nothing] <= 1
 _r0[104,Do_nothing,Recover] <= 1
 _r0[104,R1,Do_nothing] <= 1
 _r0[104,R1,Recover] <= 1
 _r0[104,R2,Do_nothing] <= 1
 _r0[104,R2,Recover] <= 1
 _r0[104,R3,Do_nothing] <= 1
 _r0[104,R3,Recover] <= 1
 _r0[130,Do_nothing,Do_nothing] <= 1
 _r0[130,Do_nothing,Recover] <= 1
 _r0[130,R1,Do_nothing] <= 1
 _r0[130,R1,Recover] <= 1
 _r0[130,R2,Do_nothing] <= 1
 _r0[130,R2,Recover] <= 1
 _r0[130,R3,Do_nothing] <= 1
 _r0[130,R3,Recover] <= 1
 _r0[139,Do_nothing,Do_nothing] <= 1
 _r0[139,Do_nothing,Recover] <= 1
 _r0[139,R1,Do_nothing] <= 1
 _r0[139,R1,Recover] <= 1
 _r0[139,R2,Do_nothing] <= 1
 _r0[139,R2,Recover] <= 1
 _r0[139,R3,Do_nothing] <= 1
 _r0[139,R3,Recover] <= 1
 _r0[36,Do_nothing,Do_nothing] <= 1
 _r0[36,Do_nothing,Recover] <= 1
 _r0[36,R1,Do_nothing] <= 1
 _r0[36,R1,Recover] <= 1
 _r0[36,R2,Do_nothing] <= 1
 _r0[36,R2,Recover] <= 1
 _r0[36,R3,Do_nothing] <= 1
 _r0[36,R3,Recover] <= 1
 _r0[25,Do_nothing,Do_nothing] <= 1
 _r0[25,Do_nothing,Recover] <= 1
 _r0[25,R1,Do_nothing] <= 1
 _r0[25,R1,Recover] <= 1
 _r0[25,R2,Do_nothing] <= 1
 _r0[25,R2,Recover] <= 1
 _r0[25,R3,Do_nothing] <= 1
 _r0[25,R3,Recover] <= 1
 _r0[64,Do_nothing,Do_nothing] <= 1
 _r0[64,Do_nothing,Recover] <= 1
 _r0[64,R1,Do_nothing] <= 1
 _r0[64,R1,Recover] <= 1
 _r0[64,R2,Do_nothing] <= 1
 _r0[64,R2,Recover] <= 1
 _r0[64,R3,Do_nothing] <= 1
 _r0[64,R3,Recover] <= 1
 _r0[110,Do_nothing,Do_nothing] <= 1
 _r0[110,Do_nothing,Recover] <= 1
 _r0[110,R1,Do_nothing] <= 1
 _r0[110,R1,Recover] <= 1
 _r0[110,R2,Do_nothing] <= 1
 _r0[110,R2,Recover] <= 1
 _r0[110,R3,Do_nothing] <= 1
 _r0[110,R3,Recover] <= 1
 _r0[10,Do_nothing,Do_nothing] <= 1
 _r0[10,Do_nothing,Recover] <= 1
 _r0[10,R1,Do_nothing] <= 1
 _r0[10,R1,Recover] <= 1
 _r0[10,R2,Do_nothing] <= 1
 _r0[10,R2,Recover] <= 1
 _r0[10,R3,Do_nothing] <= 1
 _r0[10,R3,Recover] <= 1
 _r0[7,Do_nothing,Do_nothing] <= 1
 _r0[7,Do_nothing,Recover] <= 1
 _r0[7,R1,Do_nothing] <= 1
 _r0[7,R1,Recover] <= 1
 _r0[7,R2,Do_nothing] <= 1
 _r0[7,R2,Recover] <= 1
 _r0[7,R3,Do_nothing] <= 1
 _r0[7,R3,Recover] <= 1
 _r0[80,Do_nothing,Do_nothing] <= 1
 _r0[80,Do_nothing,Recover] <= 1
 _r0[80,R1,Do_nothing] <= 1
 _r0[80,R1,Recover] <= 1
 _r0[80,R2,Do_nothing] <= 1
 _r0[80,R2,Recover] <= 1
 _r0[80,R3,Do_nothing] <= 1
 _r0[80,R3,Recover] <= 1
 _r0[124,Do_nothing,Do_nothing] <= 1
 _r0[124,Do_nothing,Recover] <= 1
 _r0[124,R1,Do_nothing] <= 1
 _r0[124,R1,Recover] <= 1
 _r0[124,R2,Do_nothing] <= 1
 _r0[124,R2,Recover] <= 1
 _r0[124,R3,Do_nothing] <= 1
 _r0[124,R3,Recover] <= 1
 _r0[127,Do_nothing,Do_nothing] <= 1
 _r0[127,Do_nothing,Recover] <= 1
 _r0[127,R1,Do_nothing] <= 1
 _r0[127,R1,Recover] <= 1
 _r0[127,R2,Do_nothing] <= 1
 _r0[127,R2,Recover] <= 1
 _r0[127,R3,Do_nothing] <= 1
 _r0[127,R3,Recover] <= 1
 _r0[40,Do_nothing,Do_nothing] <= 1
 _r0[40,Do_nothing,Recover] <= 1
 _r0[40,R1,Do_nothing] <= 1
 _r0[40,R1,Recover] <= 1
 _r0[40,R2,Do_nothing] <= 1
 _r0[40,R2,Recover] <= 1
 _r0[40,R3,Do_nothing] <= 1
 _r0[40,R3,Recover] <= 1
 _r0[103,Do_nothing,Do_nothing] <= 1
 _r0[103,Do_nothing,Recover] <= 1
 _r0[103,R1,Do_nothing] <= 1
 _r0[103,R1,Recover] <= 1
 _r0[103,R2,Do_nothing] <= 1
 _r0[103,R2,Recover] <= 1
 _r0[103,R3,Do_nothing] <= 1
 _r0[103,R3,Recover] <= 1
 _r0[118,Do_nothing,Do_nothing] <= 1
 _r0[118,Do_nothing,Recover] <= 1
 _r0[118,R1,Do_nothing] <= 1
 _r0[118,R1,Recover] <= 1
 _r0[118,R2,Do_nothing] <= 1
 _r0[118,R2,Recover] <= 1
 _r0[118,R3,Do_nothing] <= 1
 _r0[118,R3,Recover] <= 1
 _r0[136,Do_nothing,Do_nothing] <= 1
 _r0[136,Do_nothing,Recover] <= 1
 _r0[136,R1,Do_nothing] <= 1
 _r0[136,R1,Recover] <= 1
 _r0[136,R2,Do_nothing] <= 1
 _r0[136,R2,Recover] <= 1
 _r0[136,R3,Do_nothing] <= 1
 _r0[136,R3,Recover] <= 1
 _r0[65,Do_nothing,Do_nothing] <= 1
 _r0[65,Do_nothing,Recover] <= 1
 _r0[65,R1,Do_nothing] <= 1
 _r0[65,R1,Recover] <= 1
 _r0[65,R2,Do_nothing] <= 1
 _r0[65,R2,Recover] <= 1
 _r0[65,R3,Do_nothing] <= 1
 _r0[65,R3,Recover] <= 1
 _r0[62,Do_nothing,Do_nothing] <= 1
 _r0[62,Do_nothing,Recover] <= 1
 _r0[62,R1,Do_nothing] <= 1
 _r0[62,R1,Recover] <= 1
 _r0[62,R2,Do_nothing] <= 1
 _r0[62,R2,Recover] <= 1
 _r0[62,R3,Do_nothing] <= 1
 _r0[62,R3,Recover] <= 1
 _r0[125,Do_nothing,Do_nothing] <= 1
 _r0[125,Do_nothing,Recover] <= 1
 _r0[125,R1,Do_nothing] <= 1
 _r0[125,R1,Recover] <= 1
 _r0[125,R2,Do_nothing] <= 1
 _r0[125,R2,Recover] <= 1
 _r0[125,R3,Do_nothing] <= 1
 _r0[125,R3,Recover] <= 1
 _r0[60,Do_nothing,Do_nothing] <= 1
 _r0[60,Do_nothing,Recover] <= 1
 _r0[60,R1,Do_nothing] <= 1
 _r0[60,R1,Recover] <= 1
 _r0[60,R2,Do_nothing] <= 1
 _r0[60,R2,Recover] <= 1
 _r0[60,R3,Do_nothing] <= 1
 _r0[60,R3,Recover] <= 1
 _r0[17,Do_nothing,Do_nothing] <= 1
 _r0[17,Do_nothing,Recover] <= 1
 _r0[17,R1,Do_nothing] <= 1
 _r0[17,R1,Recover] <= 1
 _r0[17,R2,Do_nothing] <= 1
 _r0[17,R2,Recover] <= 1
 _r0[17,R3,Do_nothing] <= 1
 _r0[17,R3,Recover] <= 1
 _r0[53,Do_nothing,Do_nothing] <= 1
 _r0[53,Do_nothing,Recover] <= 1
 _r0[53,R1,Do_nothing] <= 1
 _r0[53,R1,Recover] <= 1
 _r0[53,R2,Do_nothing] <= 1
 _r0[53,R2,Recover] <= 1
 _r0[53,R3,Do_nothing] <= 1
 _r0[53,R3,Recover] <= 1
 _r0[131,Do_nothing,Do_nothing] <= 1
 _r0[131,Do_nothing,Recover] <= 1
 _r0[131,R1,Do_nothing] <= 1
 _r0[131,R1,Recover] <= 1
 _r0[131,R2,Do_nothing] <= 1
 _r0[131,R2,Recover] <= 1
 _r0[131,R3,Do_nothing] <= 1
 _r0[131,R3,Recover] <= 1
 _r0[55,Do_nothing,Do_nothing] <= 1
 _r0[55,Do_nothing,Recover] <= 1
 _r0[55,R1,Do_nothing] <= 1
 _r0[55,R1,Recover] <= 1
 _r0[55,R2,Do_nothing] <= 1
 _r0[55,R2,Recover] <= 1
 _r0[55,R3,Do_nothing] <= 1
 _r0[55,R3,Recover] <= 1
 _r0[58,Do_nothing,Do_nothing] <= 1
 _r0[58,Do_nothing,Recover] <= 1
 _r0[58,R1,Do_nothing] <= 1
 _r0[58,R1,Recover] <= 1
 _r0[58,R2,Do_nothing] <= 1
 _r0[58,R2,Recover] <= 1
 _r0[58,R3,Do_nothing] <= 1
 _r0[58,R3,Recover] <= 1
 _r0[107,Do_nothing,Do_nothing] <= 1
 _r0[107,Do_nothing,Recover] <= 1
 _r0[107,R1,Do_nothing] <= 1
 _r0[107,R1,Recover] <= 1
 _r0[107,R2,Do_nothing] <= 1
 _r0[107,R2,Recover] <= 1
 _r0[107,R3,Do_nothing] <= 1
 _r0[107,R3,Recover] <= 1
 _r0[4,Do_nothing,Do_nothing] <= 1
 _r0[4,Do_nothing,Recover] <= 1
 _r0[4,R1,Do_nothing] <= 1
 _r0[4,R1,Recover] <= 1
 _r0[4,R2,Do_nothing] <= 1
 _r0[4,R2,Recover] <= 1
 _r0[4,R3,Do_nothing] <= 1
 _r0[4,R3,Recover] <= 1
 _r0[149,Do_nothing,Do_nothing] <= 1
 _r0[149,Do_nothing,Recover] <= 1
 _r0[149,R1,Do_nothing] <= 1
 _r0[149,R1,Recover] <= 1
 _r0[149,R2,Do_nothing] <= 1
 _r0[149,R2,Recover] <= 1
 _r0[149,R3,Do_nothing] <= 1
 _r0[149,R3,Recover] <= 1
 _r0[63,Do_nothing,Do_nothing] <= 1
 _r0[63,Do_nothing,Recover] <= 1
 _r0[63,R1,Do_nothing] <= 1
 _r0[63,R1,Recover] <= 1
 _r0[63,R2,Do_nothing] <= 1
 _r0[63,R2,Recover] <= 1
 _r0[63,R3,Do_nothing] <= 1
 _r0[63,R3,Recover] <= 1
 _r0[57,Do_nothing,Do_nothing] <= 1
 _r0[57,Do_nothing,Recover] <= 1
 _r0[57,R1,Do_nothing] <= 1
 _r0[57,R1,Recover] <= 1
 _r0[57,R2,Do_nothing] <= 1
 _r0[57,R2,Recover] <= 1
 _r0[57,R3,Do_nothing] <= 1
 _r0[57,R3,Recover] <= 1
 _r0[23,Do_nothing,Do_nothing] <= 1
 _r0[23,Do_nothing,Recover] <= 1
 _r0[23,R1,Do_nothing] <= 1
 _r0[23,R1,Recover] <= 1
 _r0[23,R2,Do_nothing] <= 1
 _r0[23,R2,Recover] <= 1
 _r0[23,R3,Do_nothing] <= 1
 _r0[23,R3,Recover] <= 1
 _r0[117,Do_nothing,Do_nothing] <= 1
 _r0[117,Do_nothing,Recover] <= 1
 _r0[117,R1,Do_nothing] <= 1
 _r0[117,R1,Recover] <= 1
 _r0[117,R2,Do_nothing] <= 1
 _r0[117,R2,Recover] <= 1
 _r0[117,R3,Do_nothing] <= 1
 _r0[117,R3,Recover] <= 1
 _r0[108,Do_nothing,Do_nothing] <= 1
 _r0[108,Do_nothing,Recover] <= 1
 _r0[108,R1,Do_nothing] <= 1
 _r0[108,R1,Recover] <= 1
 _r0[108,R2,Do_nothing] <= 1
 _r0[108,R2,Recover] <= 1
 _r0[108,R3,Do_nothing] <= 1
 _r0[108,R3,Recover] <= 1
 _r0[138,Do_nothing,Do_nothing] <= 1
 _r0[138,Do_nothing,Recover] <= 1
 _r0[138,R1,Do_nothing] <= 1
 _r0[138,R1,Recover] <= 1
 _r0[138,R2,Do_nothing] <= 1
 _r0[138,R2,Recover] <= 1
 _r0[138,R3,Do_nothing] <= 1
 _r0[138,R3,Recover] <= 1
 _r0[6,Do_nothing,Do_nothing] <= 1
 _r0[6,Do_nothing,Recover] <= 1
 _r0[6,R1,Do_nothing] <= 1
 _r0[6,R1,Recover] <= 1
 _r0[6,R2,Do_nothing] <= 1
 _r0[6,R2,Recover] <= 1
 _r0[6,R3,Do_nothing] <= 1
 _r0[6,R3,Recover] <= 1
 _r0[86,Do_nothing,Do_nothing] <= 1
 _r0[86,Do_nothing,Recover] <= 1
 _r0[86,R1,Do_nothing] <= 1
 _r0[86,R1,Recover] <= 1
 _r0[86,R2,Do_nothing] <= 1
 _r0[86,R2,Recover] <= 1
 _r0[86,R3,Do_nothing] <= 1
 _r0[86,R3,Recover] <= 1
 _r0[121,Do_nothing,Do_nothing] <= 1
 _r0[121,Do_nothing,Recover] <= 1
 _r0[121,R1,Do_nothing] <= 1
 _r0[121,R1,Recover] <= 1
 _r0[121,R2,Do_nothing] <= 1
 _r0[121,R2,Recover] <= 1
 _r0[121,R3,Do_nothing] <= 1
 _r0[121,R3,Recover] <= 1
 _r0[145,Do_nothing,Do_nothing] <= 1
 _r0[145,Do_nothing,Recover] <= 1
 _r0[145,R1,Do_nothing] <= 1
 _r0[145,R1,Recover] <= 1
 _r0[145,R2,Do_nothing] <= 1
 _r0[145,R2,Recover] <= 1
 _r0[145,R3,Do_nothing] <= 1
 _r0[145,R3,Recover] <= 1
 _r0[99,Do_nothing,Do_nothing] <= 1
 _r0[99,Do_nothing,Recover] <= 1
 _r0[99,R1,Do_nothing] <= 1
 _r0[99,R1,Recover] <= 1
 _r0[99,R2,Do_nothing] <= 1
 _r0[99,R2,Recover] <= 1
 _r0[99,R3,Do_nothing] <= 1
 _r0[99,R3,Recover] <= 1
 _r0[21,Do_nothing,Do_nothing] <= 1
 _r0[21,Do_nothing,Recover] <= 1
 _r0[21,R1,Do_nothing] <= 1
 _r0[21,R1,Recover] <= 1
 _r0[21,R2,Do_nothing] <= 1
 _r0[21,R2,Recover] <= 1
 _r0[21,R3,Do_nothing] <= 1
 _r0[21,R3,Recover] <= 1
 _r0[42,Do_nothing,Do_nothing] <= 1
 _r0[42,Do_nothing,Recover] <= 1
 _r0[42,R1,Do_nothing] <= 1
 _r0[42,R1,Recover] <= 1
 _r0[42,R2,Do_nothing] <= 1
 _r0[42,R2,Recover] <= 1
 _r0[42,R3,Do_nothing] <= 1
 _r0[42,R3,Recover] <= 1
 _r0[98,Do_nothing,Do_nothing] <= 1
 _r0[98,Do_nothing,Recover] <= 1
 _r0[98,R1,Do_nothing] <= 1
 _r0[98,R1,Recover] <= 1
 _r0[98,R2,Do_nothing] <= 1
 _r0[98,R2,Recover] <= 1
 _r0[98,R3,Do_nothing] <= 1
 _r0[98,R3,Recover] <= 1
 _r0[100,Do_nothing,Do_nothing] <= 1
 _r0[100,Do_nothing,Recover] <= 1
 _r0[100,R1,Do_nothing] <= 1
 _r0[100,R1,Recover] <= 1
 _r0[100,R2,Do_nothing] <= 1
 _r0[100,R2,Recover] <= 1
 _r0[100,R3,Do_nothing] <= 1
 _r0[100,R3,Recover] <= 1
 _r0[76,Do_nothing,Do_nothing] <= 1
 _r0[76,Do_nothing,Recover] <= 1
 _r0[76,R1,Do_nothing] <= 1
 _r0[76,R1,Recover] <= 1
 _r0[76,R2,Do_nothing] <= 1
 _r0[76,R2,Recover] <= 1
 _r0[76,R3,Do_nothing] <= 1
 _r0[76,R3,Recover] <= 1
 _r0[102,Do_nothing,Do_nothing] <= 1
 _r0[102,Do_nothing,Recover] <= 1
 _r0[102,R1,Do_nothing] <= 1
 _r0[102,R1,Recover] <= 1
 _r0[102,R2,Do_nothing] <= 1
 _r0[102,R2,Recover] <= 1
 _r0[102,R3,Do_nothing] <= 1
 _r0[102,R3,Recover] <= 1
 _r0[141,Do_nothing,Do_nothing] <= 1
 _r0[141,Do_nothing,Recover] <= 1
 _r0[141,R1,Do_nothing] <= 1
 _r0[141,R1,Recover] <= 1
 _r0[141,R2,Do_nothing] <= 1
 _r0[141,R2,Recover] <= 1
 _r0[141,R3,Do_nothing] <= 1
 _r0[141,R3,Recover] <= 1
 _r0[146,Do_nothing,Do_nothing] <= 1
 _r0[146,Do_nothing,Recover] <= 1
 _r0[146,R1,Do_nothing] <= 1
 _r0[146,R1,Recover] <= 1
 _r0[146,R2,Do_nothing] <= 1
 _r0[146,R2,Recover] <= 1
 _r0[146,R3,Do_nothing] <= 1
 _r0[146,R3,Recover] <= 1
 _r0[94,Do_nothing,Do_nothing] <= 1
 _r0[94,Do_nothing,Recover] <= 1
 _r0[94,R1,Do_nothing] <= 1
 _r0[94,R1,Recover] <= 1
 _r0[94,R2,Do_nothing] <= 1
 _r0[94,R2,Recover] <= 1
 _r0[94,R3,Do_nothing] <= 1
 _r0[94,R3,Recover] <= 1
 _r0[79,Do_nothing,Do_nothing] <= 1
 _r0[79,Do_nothing,Recover] <= 1
 _r0[79,R1,Do_nothing] <= 1
 _r0[79,R1,Recover] <= 1
 _r0[79,R2,Do_nothing] <= 1
 _r0[79,R2,Recover] <= 1
 _r0[79,R3,Do_nothing] <= 1
 _r0[79,R3,Recover] <= 1
 _r0[2,Do_nothing,Do_nothing] <= 1
 _r0[2,Do_nothing,Recover] <= 1
 _r0[2,R1,Do_nothing] <= 1
 _r0[2,R1,Recover] <= 1
 _r0[2,R2,Do_nothing] <= 1
 _r0[2,R2,Recover] <= 1
 _r0[2,R3,Do_nothing] <= 1
 _r0[2,R3,Recover] <= 1
 _r0[140,Do_nothing,Do_nothing] <= 1
 _r0[140,Do_nothing,Recover] <= 1
 _r0[140,R1,Do_nothing] <= 1
 _r0[140,R1,Recover] <= 1
 _r0[140,R2,Do_nothing] <= 1
 _r0[140,R2,Recover] <= 1
 _r0[140,R3,Do_nothing] <= 1
 _r0[140,R3,Recover] <= 1
 _r0[77,Do_nothing,Do_nothing] <= 1
 _r0[77,Do_nothing,Recover] <= 1
 _r0[77,R1,Do_nothing] <= 1
 _r0[77,R1,Recover] <= 1
 _r0[77,R2,Do_nothing] <= 1
 _r0[77,R2,Recover] <= 1
 _r0[77,R3,Do_nothing] <= 1
 _r0[77,R3,Recover] <= 1
 _r0[24,Do_nothing,Do_nothing] <= 1
 _r0[24,Do_nothing,Recover] <= 1
 _r0[24,R1,Do_nothing] <= 1
 _r0[24,R1,Recover] <= 1
 _r0[24,R2,Do_nothing] <= 1
 _r0[24,R2,Recover] <= 1
 _r0[24,R3,Do_nothing] <= 1
 _r0[24,R3,Recover] <= 1
 _r0[66,Do_nothing,Do_nothing] <= 1
 _r0[66,Do_nothing,Recover] <= 1
 _r0[66,R1,Do_nothing] <= 1
 _r0[66,R1,Recover] <= 1
 _r0[66,R2,Do_nothing] <= 1
 _r0[66,R2,Recover] <= 1
 _r0[66,R3,Do_nothing] <= 1
 _r0[66,R3,Recover] <= 1
 _r0[8,Do_nothing,Do_nothing] <= 1
 _r0[8,Do_nothing,Recover] <= 1
 _r0[8,R1,Do_nothing] <= 1
 _r0[8,R1,Recover] <= 1
 _r0[8,R2,Do_nothing] <= 1
 _r0[8,R2,Recover] <= 1
 _r0[8,R3,Do_nothing] <= 1
 _r0[8,R3,Recover] <= 1
 _r0[43,Do_nothing,Do_nothing] <= 1
 _r0[43,Do_nothing,Recover] <= 1
 _r0[43,R1,Do_nothing] <= 1
 _r0[43,R1,Recover] <= 1
 _r0[43,R2,Do_nothing] <= 1
 _r0[43,R2,Recover] <= 1
 _r0[43,R3,Do_nothing] <= 1
 _r0[43,R3,Recover] <= 1
 _r0[74,Do_nothing,Do_nothing] <= 1
 _r0[74,Do_nothing,Recover] <= 1
 _r0[74,R1,Do_nothing] <= 1
 _r0[74,R1,Recover] <= 1
 _r0[74,R2,Do_nothing] <= 1
 _r0[74,R2,Recover] <= 1
 _r0[74,R3,Do_nothing] <= 1
 _r0[74,R3,Recover] <= 1
 _r0[35,Do_nothing,Do_nothing] <= 1
 _r0[35,Do_nothing,Recover] <= 1
 _r0[35,R1,Do_nothing] <= 1
 _r0[35,R1,Recover] <= 1
 _r0[35,R2,Do_nothing] <= 1
 _r0[35,R2,Recover] <= 1
 _r0[35,R3,Do_nothing] <= 1
 _r0[35,R3,Recover] <= 1
 _r0[26,Do_nothing,Do_nothing] <= 1
 _r0[26,Do_nothing,Recover] <= 1
 _r0[26,R1,Do_nothing] <= 1
 _r0[26,R1,Recover] <= 1
 _r0[26,R2,Do_nothing] <= 1
 _r0[26,R2,Recover] <= 1
 _r0[26,R3,Do_nothing] <= 1
 _r0[26,R3,Recover] <= 1
 _r0[15,Do_nothing,Do_nothing] <= 1
 _r0[15,Do_nothing,Recover] <= 1
 _r0[15,R1,Do_nothing] <= 1
 _r0[15,R1,Recover] <= 1
 _r0[15,R2,Do_nothing] <= 1
 _r0[15,R2,Recover] <= 1
 _r0[15,R3,Do_nothing] <= 1
 _r0[15,R3,Recover] <= 1
 _r0[56,Do_nothing,Do_nothing] <= 1
 _r0[56,Do_nothing,Recover] <= 1
 _r0[56,R1,Do_nothing] <= 1
 _r0[56,R1,Recover] <= 1
 _r0[56,R2,Do_nothing] <= 1
 _r0[56,R2,Recover] <= 1
 _r0[56,R3,Do_nothing] <= 1
 _r0[56,R3,Recover] <= 1
 _r0[88,Do_nothing,Do_nothing] <= 1
 _r0[88,Do_nothing,Recover] <= 1
 _r0[88,R1,Do_nothing] <= 1
 _r0[88,R1,Recover] <= 1
 _r0[88,R2,Do_nothing] <= 1
 _r0[88,R2,Recover] <= 1
 _r0[88,R3,Do_nothing] <= 1
 _r0[88,R3,Recover] <= 1
 _r0[142,Do_nothing,Do_nothing] <= 1
 _r0[142,Do_nothing,Recover] <= 1
 _r0[142,R1,Do_nothing] <= 1
 _r0[142,R1,Recover] <= 1
 _r0[142,R2,Do_nothing] <= 1
 _r0[142,R2,Recover] <= 1
 _r0[142,R3,Do_nothing] <= 1
 _r0[142,R3,Recover] <= 1
 _r0[113,Do_nothing,Do_nothing] <= 1
 _r0[113,Do_nothing,Recover] <= 1
 _r0[113,R1,Do_nothing] <= 1
 _r0[113,R1,Recover] <= 1
 _r0[113,R2,Do_nothing] <= 1
 _r0[113,R2,Recover] <= 1
 _r0[113,R3,Do_nothing] <= 1
 _r0[113,R3,Recover] <= 1
 _r0[52,Do_nothing,Do_nothing] <= 1
 _r0[52,Do_nothing,Recover] <= 1
 _r0[52,R1,Do_nothing] <= 1
 _r0[52,R1,Recover] <= 1
 _r0[52,R2,Do_nothing] <= 1
 _r0[52,R2,Recover] <= 1
 _r0[52,R3,Do_nothing] <= 1
 _r0[52,R3,Recover] <= 1
 _r0[37,Do_nothing,Do_nothing] <= 1
 _r0[37,Do_nothing,Recover] <= 1
 _r0[37,R1,Do_nothing] <= 1
 _r0[37,R1,Recover] <= 1
 _r0[37,R2,Do_nothing] <= 1
 _r0[37,R2,Recover] <= 1
 _r0[37,R3,Do_nothing] <= 1
 _r0[37,R3,Recover] <= 1
 _r0[78,Do_nothing,Do_nothing] <= 1
 _r0[78,Do_nothing,Recover] <= 1
 _r0[78,R1,Do_nothing] <= 1
 _r0[78,R1,Recover] <= 1
 _r0[78,R2,Do_nothing] <= 1
 _r0[78,R2,Recover] <= 1
 _r0[78,R3,Do_nothing] <= 1
 _r0[78,R3,Recover] <= 1
 _r0[132,Do_nothing,Do_nothing] <= 1
 _r0[132,Do_nothing,Recover] <= 1
 _r0[132,R1,Do_nothing] <= 1
 _r0[132,R1,Recover] <= 1
 _r0[132,R2,Do_nothing] <= 1
 _r0[132,R2,Recover] <= 1
 _r0[132,R3,Do_nothing] <= 1
 _r0[132,R3,Recover] <= 1
 _r0[50,Do_nothing,Do_nothing] <= 1
 _r0[50,Do_nothing,Recover] <= 1
 _r0[50,R1,Do_nothing] <= 1
 _r0[50,R1,Recover] <= 1
 _r0[50,R2,Do_nothing] <= 1
 _r0[50,R2,Recover] <= 1
 _r0[50,R3,Do_nothing] <= 1
 _r0[50,R3,Recover] <= 1
 _r0[144,Do_nothing,Do_nothing] <= 1
 _r0[144,Do_nothing,Recover] <= 1
 _r0[144,R1,Do_nothing] <= 1
 _r0[144,R1,Recover] <= 1
 _r0[144,R2,Do_nothing] <= 1
 _r0[144,R2,Recover] <= 1
 _r0[144,R3,Do_nothing] <= 1
 _r0[144,R3,Recover] <= 1
 _r0[96,Do_nothing,Do_nothing] <= 1
 _r0[96,Do_nothing,Recover] <= 1
 _r0[96,R1,Do_nothing] <= 1
 _r0[96,R1,Recover] <= 1
 _r0[96,R2,Do_nothing] <= 1
 _r0[96,R2,Recover] <= 1
 _r0[96,R3,Do_nothing] <= 1
 _r0[96,R3,Recover] <= 1
 _r0[120,Do_nothing,Do_nothing] <= 1
 _r0[120,Do_nothing,Recover] <= 1
 _r0[120,R1,Do_nothing] <= 1
 _r0[120,R1,Recover] <= 1
 _r0[120,R2,Do_nothing] <= 1
 _r0[120,R2,Recover] <= 1
 _r0[120,R3,Do_nothing] <= 1
 _r0[120,R3,Recover] <= 1
 _r0[22,Do_nothing,Do_nothing] <= 1
 _r0[22,Do_nothing,Recover] <= 1
 _r0[22,R1,Do_nothing] <= 1
 _r0[22,R1,Recover] <= 1
 _r0[22,R2,Do_nothing] <= 1
 _r0[22,R2,Recover] <= 1
 _r0[22,R3,Do_nothing] <= 1
 _r0[22,R3,Recover] <= 1
 _r0[84,Do_nothing,Do_nothing] <= 1
 _r0[84,Do_nothing,Recover] <= 1
 _r0[84,R1,Do_nothing] <= 1
 _r0[84,R1,Recover] <= 1
 _r0[84,R2,Do_nothing] <= 1
 _r0[84,R2,Recover] <= 1
 _r0[84,R3,Do_nothing] <= 1
 _r0[84,R3,Recover] <= 1
 _r0[85,Do_nothing,Do_nothing] <= 1
 _r0[85,Do_nothing,Recover] <= 1
 _r0[85,R1,Do_nothing] <= 1
 _r0[85,R1,Recover] <= 1
 _r0[85,R2,Do_nothing] <= 1
 _r0[85,R2,Recover] <= 1
 _r0[85,R3,Do_nothing] <= 1
 _r0[85,R3,Recover] <= 1
 _r0[16,Do_nothing,Do_nothing] <= 1
 _r0[16,Do_nothing,Recover] <= 1
 _r0[16,R1,Do_nothing] <= 1
 _r0[16,R1,Recover] <= 1
 _r0[16,R2,Do_nothing] <= 1
 _r0[16,R2,Recover] <= 1
 _r0[16,R3,Do_nothing] <= 1
 _r0[16,R3,Recover] <= 1
 _r0[20,Do_nothing,Do_nothing] <= 1
 _r0[20,Do_nothing,Recover] <= 1
 _r0[20,R1,Do_nothing] <= 1
 _r0[20,R1,Recover] <= 1
 _r0[20,R2,Do_nothing] <= 1
 _r0[20,R2,Recover] <= 1
 _r0[20,R3,Do_nothing] <= 1
 _r0[20,R3,Recover] <= 1
 _r0[128,Do_nothing,Do_nothing] <= 1
 _r0[128,Do_nothing,Recover] <= 1
 _r0[128,R1,Do_nothing] <= 1
 _r0[128,R1,Recover] <= 1
 _r0[128,R2,Do_nothing] <= 1
 _r0[128,R2,Recover] <= 1
 _r0[128,R3,Do_nothing] <= 1
 _r0[128,R3,Recover] <= 1
 _r0[54,Do_nothing,Do_nothing] <= 1
 _r0[54,Do_nothing,Recover] <= 1
 _r0[54,R1,Do_nothing] <= 1
 _r0[54,R1,Recover] <= 1
 _r0[54,R2,Do_nothing] <= 1
 _r0[54,R2,Recover] <= 1
 _r0[54,R3,Do_nothing] <= 1
 _r0[54,R3,Recover] <= 1
 _r0[29,Do_nothing,Do_nothing] <= 1
 _r0[29,Do_nothing,Recover] <= 1
 _r0[29,R1,Do_nothing] <= 1
 _r0[29,R1,Recover] <= 1
 _r0[29,R2,Do_nothing] <= 1
 _r0[29,R2,Recover] <= 1
 _r0[29,R3,Do_nothing] <= 1
 _r0[29,R3,Recover] <= 1
 _r0[14,Do_nothing,Do_nothing] <= 1
 _r0[14,Do_nothing,Recover] <= 1
 _r0[14,R1,Do_nothing] <= 1
 _r0[14,R1,Recover] <= 1
 _r0[14,R2,Do_nothing] <= 1
 _r0[14,R2,Recover] <= 1
 _r0[14,R3,Do_nothing] <= 1
 _r0[14,R3,Recover] <= 1
 _r0[38,Do_nothing,Do_nothing] <= 1
 _r0[38,Do_nothing,Recover] <= 1
 _r0[38,R1,Do_nothing] <= 1
 _r0[38,R1,Recover] <= 1
 _r0[38,R2,Do_nothing] <= 1
 _r0[38,R2,Recover] <= 1
 _r0[38,R3,Do_nothing] <= 1
 _r0[38,R3,Recover] <= 1
 _r0[70,Do_nothing,Do_nothing] <= 1
 _r0[70,Do_nothing,Recover] <= 1
 _r0[70,R1,Do_nothing] <= 1
 _r0[70,R1,Recover] <= 1
 _r0[70,R2,Do_nothing] <= 1
 _r0[70,R2,Recover] <= 1
 _r0[70,R3,Do_nothing] <= 1
 _r0[70,R3,Recover] <= 1
 _r0[143,Do_nothing,Do_nothing] <= 1
 _r0[143,Do_nothing,Recover] <= 1
 _r0[143,R1,Do_nothing] <= 1
 _r0[143,R1,Recover] <= 1
 _r0[143,R2,Do_nothing] <= 1
 _r0[143,R2,Recover] <= 1
 _r0[143,R3,Do_nothing] <= 1
 _r0[143,R3,Recover] <= 1
 _r0[48,Do_nothing,Do_nothing] <= 1
 _r0[48,Do_nothing,Recover] <= 1
 _r0[48,R1,Do_nothing] <= 1
 _r0[48,R1,Recover] <= 1
 _r0[48,R2,Do_nothing] <= 1
 _r0[48,R2,Recover] <= 1
 _r0[48,R3,Do_nothing] <= 1
 _r0[48,R3,Recover] <= 1
 _r0[112,Do_nothing,Do_nothing] <= 1
 _r0[112,Do_nothing,Recover] <= 1
 _r0[112,R1,Do_nothing] <= 1
 _r0[112,R1,Recover] <= 1
 _r0[112,R2,Do_nothing] <= 1
 _r0[112,R2,Recover] <= 1
 _r0[112,R3,Do_nothing] <= 1
 _r0[112,R3,Recover] <= 1
 _r0[89,Do_nothing,Do_nothing] <= 1
 _r0[89,Do_nothing,Recover] <= 1
 _r0[89,R1,Do_nothing] <= 1
 _r0[89,R1,Recover] <= 1
 _r0[89,R2,Do_nothing] <= 1
 _r0[89,R2,Recover] <= 1
 _r0[89,R3,Do_nothing] <= 1
 _r0[89,R3,Recover] <= 1
 _r0[129,Do_nothing,Do_nothing] <= 1
 _r0[129,Do_nothing,Recover] <= 1
 _r0[129,R1,Do_nothing] <= 1
 _r0[129,R1,Recover] <= 1
 _r0[129,R2,Do_nothing] <= 1
 _r0[129,R2,Recover] <= 1
 _r0[129,R3,Do_nothing] <= 1
 _r0[129,R3,Recover] <= 1
 _r0[68,Do_nothing,Do_nothing] <= 1
 _r0[68,Do_nothing,Recover] <= 1
 _r0[68,R1,Do_nothing] <= 1
 _r0[68,R1,Recover] <= 1
 _r0[68,R2,Do_nothing] <= 1
 _r0[68,R2,Recover] <= 1
 _r0[68,R3,Do_nothing] <= 1
 _r0[68,R3,Recover] <= 1
 _r0[115,Do_nothing,Do_nothing] <= 1
 _r0[115,Do_nothing,Recover] <= 1
 _r0[115,R1,Do_nothing] <= 1
 _r0[115,R1,Recover] <= 1
 _r0[115,R2,Do_nothing] <= 1
 _r0[115,R2,Recover] <= 1
 _r0[115,R3,Do_nothing] <= 1
 _r0[115,R3,Recover] <= 1
 _r0[111,Do_nothing,Do_nothing] <= 1
 _r0[111,Do_nothing,Recover] <= 1
 _r0[111,R1,Do_nothing] <= 1
 _r0[111,R1,Recover] <= 1
 _r0[111,R2,Do_nothing] <= 1
 _r0[111,R2,Recover] <= 1
 _r0[111,R3,Do_nothing] <= 1
 _r0[111,R3,Recover] <= 1
 _r0[9,Do_nothing,Do_nothing] <= 1
 _r0[9,Do_nothing,Recover] <= 1
 _r0[9,R1,Do_nothing] <= 1
 _r0[9,R1,Recover] <= 1
 _r0[9,R2,Do_nothing] <= 1
 _r0[9,R2,Recover] <= 1
 _r0[9,R3,Do_nothing] <= 1
 _r0[9,R3,Recover] <= 1
 _r0[30,Do_nothing,Do_nothing] <= 1
 _r0[30,Do_nothing,Recover] <= 1
 _r0[30,R1,Do_nothing] <= 1
 _r0[30,R1,Recover] <= 1
 _r0[30,R2,Do_nothing] <= 1
 _r0[30,R2,Recover] <= 1
 _r0[30,R3,Do_nothing] <= 1
 _r0[30,R3,Recover] <= 1
 _r0[5,Do_nothing,Do_nothing] <= 1
 _r0[5,Do_nothing,Recover] <= 1
 _r0[5,R1,Do_nothing] <= 1
 _r0[5,R1,Recover] <= 1
 _r0[5,R2,Do_nothing] <= 1
 _r0[5,R2,Recover] <= 1
 _r0[5,R3,Do_nothing] <= 1
 _r0[5,R3,Recover] <= 1
 _r0[67,Do_nothing,Do_nothing] <= 1
 _r0[67,Do_nothing,Recover] <= 1
 _r0[67,R1,Do_nothing] <= 1
 _r0[67,R1,Recover] <= 1
 _r0[67,R2,Do_nothing] <= 1
 _r0[67,R2,Recover] <= 1
 _r0[67,R3,Do_nothing] <= 1
 _r0[67,R3,Recover] <= 1
 _r0[92,Do_nothing,Do_nothing] <= 1
 _r0[92,Do_nothing,Recover] <= 1
 _r0[92,R1,Do_nothing] <= 1
 _r0[92,R1,Recover] <= 1
 _r0[92,R2,Do_nothing] <= 1
 _r0[92,R2,Recover] <= 1
 _r0[92,R3,Do_nothing] <= 1
 _r0[92,R3,Recover] <= 1
 _r0[122,Do_nothing,Do_nothing] <= 1
 _r0[122,Do_nothing,Recover] <= 1
 _r0[122,R1,Do_nothing] <= 1
 _r0[122,R1,Recover] <= 1
 _r0[122,R2,Do_nothing] <= 1
 _r0[122,R2,Recover] <= 1
 _r0[122,R3,Do_nothing] <= 1
 _r0[122,R3,Recover] <= 1
 _r0[133,Do_nothing,Do_nothing] <= 1
 _r0[133,Do_nothing,Recover] <= 1
 _r0[133,R1,Do_nothing] <= 1
 _r0[133,R1,Recover] <= 1
 _r0[133,R2,Do_nothing] <= 1
 _r0[133,R2,Recover] <= 1
 _r0[133,R3,Do_nothing] <= 1
 _r0[133,R3,Recover] <= 1
 _r0[135,Do_nothing,Do_nothing] <= 1
 _r0[135,Do_nothing,Recover] <= 1
 _r0[135,R1,Do_nothing] <= 1
 _r0[135,R1,Recover] <= 1
 _r0[135,R2,Do_nothing] <= 1
 _r0[135,R2,Recover] <= 1
 _r0[135,R3,Do_nothing] <= 1
 _r0[135,R3,Recover] <= 1
 _r0[73,Do_nothing,Do_nothing] <= 1
 _r0[73,Do_nothing,Recover] <= 1
 _r0[73,R1,Do_nothing] <= 1
 _r0[73,R1,Recover] <= 1
 _r0[73,R2,Do_nothing] <= 1
 _r0[73,R2,Recover] <= 1
 _r0[73,R3,Do_nothing] <= 1
 _r0[73,R3,Recover] <= 1
 _r0[27,Do_nothing,Do_nothing] <= 1
 _r0[27,Do_nothing,Recover] <= 1
 _r0[27,R1,Do_nothing] <= 1
 _r0[27,R1,Recover] <= 1
 _r0[27,R2,Do_nothing] <= 1
 _r0[27,R2,Recover] <= 1
 _r0[27,R3,Do_nothing] <= 1
 _r0[27,R3,Recover] <= 1
 _r0[32,Do_nothing,Do_nothing] <= 1
 _r0[32,Do_nothing,Recover] <= 1
 _r0[32,R1,Do_nothing] <= 1
 _r0[32,R1,Recover] <= 1
 _r0[32,R2,Do_nothing] <= 1
 _r0[32,R2,Recover] <= 1
 _r0[32,R3,Do_nothing] <= 1
 _r0[32,R3,Recover] <= 1
 _r0[18,Do_nothing,Do_nothing] <= 1
 _r0[18,Do_nothing,Recover] <= 1
 _r0[18,R1,Do_nothing] <= 1
 _r0[18,R1,Recover] <= 1
 _r0[18,R2,Do_nothing] <= 1
 _r0[18,R2,Recover] <= 1
 _r0[18,R3,Do_nothing] <= 1
 _r0[18,R3,Recover] <= 1
 _r0[45,Do_nothing,Do_nothing] <= 1
 _r0[45,Do_nothing,Recover] <= 1
 _r0[45,R1,Do_nothing] <= 1
 _r0[45,R1,Recover] <= 1
 _r0[45,R2,Do_nothing] <= 1
 _r0[45,R2,Recover] <= 1
 _r0[45,R3,Do_nothing] <= 1
 _r0[45,R3,Recover] <= 1
 _r0[91,Do_nothing,Do_nothing] <= 1
 _r0[91,Do_nothing,Recover] <= 1
 _r0[91,R1,Do_nothing] <= 1
 _r0[91,R1,Recover] <= 1
 _r0[91,R2,Do_nothing] <= 1
 _r0[91,R2,Recover] <= 1
 _r0[91,R3,Do_nothing] <= 1
 _r0[91,R3,Recover] <= 1
 _r0[101,Do_nothing,Do_nothing] <= 1
 _r0[101,Do_nothing,Recover] <= 1
 _r0[101,R1,Do_nothing] <= 1
 _r0[101,R1,Recover] <= 1
 _r0[101,R2,Do_nothing] <= 1
 _r0[101,R2,Recover] <= 1
 _r0[101,R3,Do_nothing] <= 1
 _r0[101,R3,Recover] <= 1
 _r0[49,Do_nothing,Do_nothing] <= 1
 _r0[49,Do_nothing,Recover] <= 1
 _r0[49,R1,Do_nothing] <= 1
 _r0[49,R1,Recover] <= 1
 _r0[49,R2,Do_nothing] <= 1
 _r0[49,R2,Recover] <= 1
 _r0[49,R3,Do_nothing] <= 1
 _r0[49,R3,Recover] <= 1
 _r0[83,Do_nothing,Do_nothing] <= 1
 _r0[83,Do_nothing,Recover] <= 1
 _r0[83,R1,Do_nothing] <= 1
 _r0[83,R1,Recover] <= 1
 _r0[83,R2,Do_nothing] <= 1
 _r0[83,R2,Recover] <= 1
 _r0[83,R3,Do_nothing] <= 1
 _r0[83,R3,Recover] <= 1
 _r1[105,Do_nothing,Do_nothing] <= 1
 _r1[105,Do_nothing,Recover] <= 1
 _r1[105,R1,Do_nothing] <= 1
 _r1[105,R1,Recover] <= 1
 _r1[105,R2,Do_nothing] <= 1
 _r1[105,R2,Recover] <= 1
 _r1[105,R3,Do_nothing] <= 1
 _r1[105,R3,Recover] <= 1
 _r1[19,Do_nothing,Do_nothing] <= 1
 _r1[19,Do_nothing,Recover] <= 1
 _r1[19,R1,Do_nothing] <= 1
 _r1[19,R1,Recover] <= 1
 _r1[19,R2,Do_nothing] <= 1
 _r1[19,R2,Recover] <= 1
 _r1[19,R3,Do_nothing] <= 1
 _r1[19,R3,Recover] <= 1
 _r1[150,Do_nothing,Do_nothing] <= 1
 _r1[150,Do_nothing,Recover] <= 1
 _r1[150,R1,Do_nothing] <= 1
 _r1[150,R1,Recover] <= 1
 _r1[150,R2,Do_nothing] <= 1
 _r1[150,R2,Recover] <= 1
 _r1[150,R3,Do_nothing] <= 1
 _r1[150,R3,Recover] <= 1
 _r1[61,Do_nothing,Do_nothing] <= 1
 _r1[61,Do_nothing,Recover] <= 1
 _r1[61,R1,Do_nothing] <= 1
 _r1[61,R1,Recover] <= 1
 _r1[61,R2,Do_nothing] <= 1
 _r1[61,R2,Recover] <= 1
 _r1[61,R3,Do_nothing] <= 1
 _r1[61,R3,Recover] <= 1
 _r1[109,Do_nothing,Do_nothing] <= 1
 _r1[109,Do_nothing,Recover] <= 1
 _r1[109,R1,Do_nothing] <= 1
 _r1[109,R1,Recover] <= 1
 _r1[109,R2,Do_nothing] <= 1
 _r1[109,R2,Recover] <= 1
 _r1[109,R3,Do_nothing] <= 1
 _r1[109,R3,Recover] <= 1
 _r1[126,Do_nothing,Do_nothing] <= 1
 _r1[126,Do_nothing,Recover] <= 1
 _r1[126,R1,Do_nothing] <= 1
 _r1[126,R1,Recover] <= 1
 _r1[126,R2,Do_nothing] <= 1
 _r1[126,R2,Recover] <= 1
 _r1[126,R3,Do_nothing] <= 1
 _r1[126,R3,Recover] <= 1
 _r1[137,Do_nothing,Do_nothing] <= 1
 _r1[137,Do_nothing,Recover] <= 1
 _r1[137,R1,Do_nothing] <= 1
 _r1[137,R1,Recover] <= 1
 _r1[137,R2,Do_nothing] <= 1
 _r1[137,R2,Recover] <= 1
 _r1[137,R3,Do_nothing] <= 1
 _r1[137,R3,Recover] <= 1
 _r1[31,Do_nothing,Do_nothing] <= 1
 _r1[31,Do_nothing,Recover] <= 1
 _r1[31,R1,Do_nothing] <= 1
 _r1[31,R1,Recover] <= 1
 _r1[31,R2,Do_nothing] <= 1
 _r1[31,R2,Recover] <= 1
 _r1[31,R3,Do_nothing] <= 1
 _r1[31,R3,Recover] <= 1
 _r1[1,Do_nothing,Do_nothing] <= 1
 _r1[1,Do_nothing,Recover] <= 1
 _r1[1,R1,Do_nothing] <= 1
 _r1[1,R1,Recover] <= 1
 _r1[1,R2,Do_nothing] <= 1
 _r1[1,R2,Recover] <= 1
 _r1[1,R3,Do_nothing] <= 1
 _r1[1,R3,Recover] <= 1
 _r1[51,Do_nothing,Do_nothing] <= 1
 _r1[51,Do_nothing,Recover] <= 1
 _r1[51,R1,Do_nothing] <= 1
 _r1[51,R1,Recover] <= 1
 _r1[51,R2,Do_nothing] <= 1
 _r1[51,R2,Recover] <= 1
 _r1[51,R3,Do_nothing] <= 1
 _r1[51,R3,Recover] <= 1
 _r1[39,Do_nothing,Do_nothing] <= 1
 _r1[39,Do_nothing,Recover] <= 1
 _r1[39,R1,Do_nothing] <= 1
 _r1[39,R1,Recover] <= 1
 _r1[39,R2,Do_nothing] <= 1
 _r1[39,R2,Recover] <= 1
 _r1[39,R3,Do_nothing] <= 1
 _r1[39,R3,Recover] <= 1
 _r1[81,Do_nothing,Do_nothing] <= 1
 _r1[81,Do_nothing,Recover] <= 1
 _r1[81,R1,Do_nothing] <= 1
 _r1[81,R1,Recover] <= 1
 _r1[81,R2,Do_nothing] <= 1
 _r1[81,R2,Recover] <= 1
 _r1[81,R3,Do_nothing] <= 1
 _r1[81,R3,Recover] <= 1
 _r1[147,Do_nothing,Do_nothing] <= 1
 _r1[147,Do_nothing,Recover] <= 1
 _r1[147,R1,Do_nothing] <= 1
 _r1[147,R1,Recover] <= 1
 _r1[147,R2,Do_nothing] <= 1
 _r1[147,R2,Recover] <= 1
 _r1[147,R3,Do_nothing] <= 1
 _r1[147,R3,Recover] <= 1
 _r1[44,Do_nothing,Do_nothing] <= 1
 _r1[44,Do_nothing,Recover] <= 1
 _r1[44,R1,Do_nothing] <= 1
 _r1[44,R1,Recover] <= 1
 _r1[44,R2,Do_nothing] <= 1
 _r1[44,R2,Recover] <= 1
 _r1[44,R3,Do_nothing] <= 1
 _r1[44,R3,Recover] <= 1
 _r1[97,Do_nothing,Do_nothing] <= 1
 _r1[97,Do_nothing,Recover] <= 1
 _r1[97,R1,Do_nothing] <= 1
 _r1[97,R1,Recover] <= 1
 _r1[97,R2,Do_nothing] <= 1
 _r1[97,R2,Recover] <= 1
 _r1[97,R3,Do_nothing] <= 1
 _r1[97,R3,Recover] <= 1
 _r1[71,Do_nothing,Do_nothing] <= 1
 _r1[71,Do_nothing,Recover] <= 1
 _r1[71,R1,Do_nothing] <= 1
 _r1[71,R1,Recover] <= 1
 _r1[71,R2,Do_nothing] <= 1
 _r1[71,R2,Recover] <= 1
 _r1[71,R3,Do_nothing] <= 1
 _r1[71,R3,Recover] <= 1
 _r1[134,Do_nothing,Do_nothing] <= 1
 _r1[134,Do_nothing,Recover] <= 1
 _r1[134,R1,Do_nothing] <= 1
 _r1[134,R1,Recover] <= 1
 _r1[134,R2,Do_nothing] <= 1
 _r1[134,R2,Recover] <= 1
 _r1[134,R3,Do_nothing] <= 1
 _r1[134,R3,Recover] <= 1
 _r1[11,Do_nothing,Do_nothing] <= 1
 _r1[11,Do_nothing,Recover] <= 1
 _r1[11,R1,Do_nothing] <= 1
 _r1[11,R1,Recover] <= 1
 _r1[11,R2,Do_nothing] <= 1
 _r1[11,R2,Recover] <= 1
 _r1[11,R3,Do_nothing] <= 1
 _r1[11,R3,Recover] <= 1
 _r1[69,Do_nothing,Do_nothing] <= 1
 _r1[69,Do_nothing,Recover] <= 1
 _r1[69,R1,Do_nothing] <= 1
 _r1[69,R1,Recover] <= 1
 _r1[69,R2,Do_nothing] <= 1
 _r1[69,R2,Recover] <= 1
 _r1[69,R3,Do_nothing] <= 1
 _r1[69,R3,Recover] <= 1
 _r1[12,Do_nothing,Do_nothing] <= 1
 _r1[12,Do_nothing,Recover] <= 1
 _r1[12,R1,Do_nothing] <= 1
 _r1[12,R1,Recover] <= 1
 _r1[12,R2,Do_nothing] <= 1
 _r1[12,R2,Recover] <= 1
 _r1[12,R3,Do_nothing] <= 1
 _r1[12,R3,Recover] <= 1
 _r1[87,Do_nothing,Do_nothing] <= 1
 _r1[87,Do_nothing,Recover] <= 1
 _r1[87,R1,Do_nothing] <= 1
 _r1[87,R1,Recover] <= 1
 _r1[87,R2,Do_nothing] <= 1
 _r1[87,R2,Recover] <= 1
 _r1[87,R3,Do_nothing] <= 1
 _r1[87,R3,Recover] <= 1
 _r1[123,Do_nothing,Do_nothing] <= 1
 _r1[123,Do_nothing,Recover] <= 1
 _r1[123,R1,Do_nothing] <= 1
 _r1[123,R1,Recover] <= 1
 _r1[123,R2,Do_nothing] <= 1
 _r1[123,R2,Recover] <= 1
 _r1[123,R3,Do_nothing] <= 1
 _r1[123,R3,Recover] <= 1
 _r1[148,Do_nothing,Do_nothing] <= 1
 _r1[148,Do_nothing,Recover] <= 1
 _r1[148,R1,Do_nothing] <= 1
 _r1[148,R1,Recover] <= 1
 _r1[148,R2,Do_nothing] <= 1
 _r1[148,R2,Recover] <= 1
 _r1[148,R3,Do_nothing] <= 1
 _r1[148,R3,Recover] <= 1
 _r1[41,Do_nothing,Do_nothing] <= 1
 _r1[41,Do_nothing,Recover] <= 1
 _r1[41,R1,Do_nothing] <= 1
 _r1[41,R1,Recover] <= 1
 _r1[41,R2,Do_nothing] <= 1
 _r1[41,R2,Recover] <= 1
 _r1[41,R3,Do_nothing] <= 1
 _r1[41,R3,Recover] <= 1
 _r1[106,Do_nothing,Do_nothing] <= 1
 _r1[106,Do_nothing,Recover] <= 1
 _r1[106,R1,Do_nothing] <= 1
 _r1[106,R1,Recover] <= 1
 _r1[106,R2,Do_nothing] <= 1
 _r1[106,R2,Recover] <= 1
 _r1[106,R3,Do_nothing] <= 1
 _r1[106,R3,Recover] <= 1
 _r1[34,Do_nothing,Do_nothing] <= 1
 _r1[34,Do_nothing,Recover] <= 1
 _r1[34,R1,Do_nothing] <= 1
 _r1[34,R1,Recover] <= 1
 _r1[34,R2,Do_nothing] <= 1
 _r1[34,R2,Recover] <= 1
 _r1[34,R3,Do_nothing] <= 1
 _r1[34,R3,Recover] <= 1
 _r1[114,Do_nothing,Do_nothing] <= 1
 _r1[114,Do_nothing,Recover] <= 1
 _r1[114,R1,Do_nothing] <= 1
 _r1[114,R1,Recover] <= 1
 _r1[114,R2,Do_nothing] <= 1
 _r1[114,R2,Recover] <= 1
 _r1[114,R3,Do_nothing] <= 1
 _r1[114,R3,Recover] <= 1
 _r1[47,Do_nothing,Do_nothing] <= 1
 _r1[47,Do_nothing,Recover] <= 1
 _r1[47,R1,Do_nothing] <= 1
 _r1[47,R1,Recover] <= 1
 _r1[47,R2,Do_nothing] <= 1
 _r1[47,R2,Recover] <= 1
 _r1[47,R3,Do_nothing] <= 1
 _r1[47,R3,Recover] <= 1
 _r1[75,Do_nothing,Do_nothing] <= 1
 _r1[75,Do_nothing,Recover] <= 1
 _r1[75,R1,Do_nothing] <= 1
 _r1[75,R1,Recover] <= 1
 _r1[75,R2,Do_nothing] <= 1
 _r1[75,R2,Recover] <= 1
 _r1[75,R3,Do_nothing] <= 1
 _r1[75,R3,Recover] <= 1
 _r1[119,Do_nothing,Do_nothing] <= 1
 _r1[119,Do_nothing,Recover] <= 1
 _r1[119,R1,Do_nothing] <= 1
 _r1[119,R1,Recover] <= 1
 _r1[119,R2,Do_nothing] <= 1
 _r1[119,R2,Recover] <= 1
 _r1[119,R3,Do_nothing] <= 1
 _r1[119,R3,Recover] <= 1
 _r1[28,Do_nothing,Do_nothing] <= 1
 _r1[28,Do_nothing,Recover] <= 1
 _r1[28,R1,Do_nothing] <= 1
 _r1[28,R1,Recover] <= 1
 _r1[28,R2,Do_nothing] <= 1
 _r1[28,R2,Recover] <= 1
 _r1[28,R3,Do_nothing] <= 1
 _r1[28,R3,Recover] <= 1
 _r1[93,Do_nothing,Do_nothing] <= 1
 _r1[93,Do_nothing,Recover] <= 1
 _r1[93,R1,Do_nothing] <= 1
 _r1[93,R1,Recover] <= 1
 _r1[93,R2,Do_nothing] <= 1
 _r1[93,R2,Recover] <= 1
 _r1[93,R3,Do_nothing] <= 1
 _r1[93,R3,Recover] <= 1
 _r1[59,Do_nothing,Do_nothing] <= 1
 _r1[59,Do_nothing,Recover] <= 1
 _r1[59,R1,Do_nothing] <= 1
 _r1[59,R1,Recover] <= 1
 _r1[59,R2,Do_nothing] <= 1
 _r1[59,R2,Recover] <= 1
 _r1[59,R3,Do_nothing] <= 1
 _r1[59,R3,Recover] <= 1
 _r1[90,Do_nothing,Do_nothing] <= 1
 _r1[90,Do_nothing,Recover] <= 1
 _r1[90,R1,Do_nothing] <= 1
 _r1[90,R1,Recover] <= 1
 _r1[90,R2,Do_nothing] <= 1
 _r1[90,R2,Recover] <= 1
 _r1[90,R3,Do_nothing] <= 1
 _r1[90,R3,Recover] <= 1
 _r1[95,Do_nothing,Do_nothing] <= 1
 _r1[95,Do_nothing,Recover] <= 1
 _r1[95,R1,Do_nothing] <= 1
 _r1[95,R1,Recover] <= 1
 _r1[95,R2,Do_nothing] <= 1
 _r1[95,R2,Recover] <= 1
 _r1[95,R3,Do_nothing] <= 1
 _r1[95,R3,Recover] <= 1
 _r1[3,Do_nothing,Do_nothing] <= 1
 _r1[3,Do_nothing,Recover] <= 1
 _r1[3,R1,Do_nothing] <= 1
 _r1[3,R1,Recover] <= 1
 _r1[3,R2,Do_nothing] <= 1
 _r1[3,R2,Recover] <= 1
 _r1[3,R3,Do_nothing] <= 1
 _r1[3,R3,Recover] <= 1
 _r1[82,Do_nothing,Do_nothing] <= 1
 _r1[82,Do_nothing,Recover] <= 1
 _r1[82,R1,Do_nothing] <= 1
 _r1[82,R1,Recover] <= 1
 _r1[82,R2,Do_nothing] <= 1
 _r1[82,R2,Recover] <= 1
 _r1[82,R3,Do_nothing] <= 1
 _r1[82,R3,Recover] <= 1
 _r1[72,Do_nothing,Do_nothing] <= 1
 _r1[72,Do_nothing,Recover] <= 1
 _r1[72,R1,Do_nothing] <= 1
 _r1[72,R1,Recover] <= 1
 _r1[72,R2,Do_nothing] <= 1
 _r1[72,R2,Recover] <= 1
 _r1[72,R3,Do_nothing] <= 1
 _r1[72,R3,Recover] <= 1
 _r1[46,Do_nothing,Do_nothing] <= 1
 _r1[46,Do_nothing,Recover] <= 1
 _r1[46,R1,Do_nothing] <= 1
 _r1[46,R1,Recover] <= 1
 _r1[46,R2,Do_nothing] <= 1
 _r1[46,R2,Recover] <= 1
 _r1[46,R3,Do_nothing] <= 1
 _r1[46,R3,Recover] <= 1
 _r1[33,Do_nothing,Do_nothing] <= 1
 _r1[33,Do_nothing,Recover] <= 1
 _r1[33,R1,Do_nothing] <= 1
 _r1[33,R1,Recover] <= 1
 _r1[33,R2,Do_nothing] <= 1
 _r1[33,R2,Recover] <= 1
 _r1[33,R3,Do_nothing] <= 1
 _r1[33,R3,Recover] <= 1
 _r1[116,Do_nothing,Do_nothing] <= 1
 _r1[116,Do_nothing,Recover] <= 1
 _r1[116,R1,Do_nothing] <= 1
 _r1[116,R1,Recover] <= 1
 _r1[116,R2,Do_nothing] <= 1
 _r1[116,R2,Recover] <= 1
 _r1[116,R3,Do_nothing] <= 1
 _r1[116,R3,Recover] <= 1
 _r1[13,Do_nothing,Do_nothing] <= 1
 _r1[13,Do_nothing,Recover] <= 1
 _r1[13,R1,Do_nothing] <= 1
 _r1[13,R1,Recover] <= 1
 _r1[13,R2,Do_nothing] <= 1
 _r1[13,R2,Recover] <= 1
 _r1[13,R3,Do_nothing] <= 1
 _r1[13,R3,Recover] <= 1
 _r1[104,Do_nothing,Do_nothing] <= 1
 _r1[104,Do_nothing,Recover] <= 1
 _r1[104,R1,Do_nothing] <= 1
 _r1[104,R1,Recover] <= 1
 _r1[104,R2,Do_nothing] <= 1
 _r1[104,R2,Recover] <= 1
 _r1[104,R3,Do_nothing] <= 1
 _r1[104,R3,Recover] <= 1
 _r1[130,Do_nothing,Do_nothing] <= 1
 _r1[130,Do_nothing,Recover] <= 1
 _r1[130,R1,Do_nothing] <= 1
 _r1[130,R1,Recover] <= 1
 _r1[130,R2,Do_nothing] <= 1
 _r1[130,R2,Recover] <= 1
 _r1[130,R3,Do_nothing] <= 1
 _r1[130,R3,Recover] <= 1
 _r1[139,Do_nothing,Do_nothing] <= 1
 _r1[139,Do_nothing,Recover] <= 1
 _r1[139,R1,Do_nothing] <= 1
 _r1[139,R1,Recover] <= 1
 _r1[139,R2,Do_nothing] <= 1
 _r1[139,R2,Recover] <= 1
 _r1[139,R3,Do_nothing] <= 1
 _r1[139,R3,Recover] <= 1
 _r1[36,Do_nothing,Do_nothing] <= 1
 _r1[36,Do_nothing,Recover] <= 1
 _r1[36,R1,Do_nothing] <= 1
 _r1[36,R1,Recover] <= 1
 _r1[36,R2,Do_nothing] <= 1
 _r1[36,R2,Recover] <= 1
 _r1[36,R3,Do_nothing] <= 1
 _r1[36,R3,Recover] <= 1
 _r1[25,Do_nothing,Do_nothing] <= 1
 _r1[25,Do_nothing,Recover] <= 1
 _r1[25,R1,Do_nothing] <= 1
 _r1[25,R1,Recover] <= 1
 _r1[25,R2,Do_nothing] <= 1
 _r1[25,R2,Recover] <= 1
 _r1[25,R3,Do_nothing] <= 1
 _r1[25,R3,Recover] <= 1
 _r1[64,Do_nothing,Do_nothing] <= 1
 _r1[64,Do_nothing,Recover] <= 1
 _r1[64,R1,Do_nothing] <= 1
 _r1[64,R1,Recover] <= 1
 _r1[64,R2,Do_nothing] <= 1
 _r1[64,R2,Recover] <= 1
 _r1[64,R3,Do_nothing] <= 1
 _r1[64,R3,Recover] <= 1
 _r1[110,Do_nothing,Do_nothing] <= 1
 _r1[110,Do_nothing,Recover] <= 1
 _r1[110,R1,Do_nothing] <= 1
 _r1[110,R1,Recover] <= 1
 _r1[110,R2,Do_nothing] <= 1
 _r1[110,R2,Recover] <= 1
 _r1[110,R3,Do_nothing] <= 1
 _r1[110,R3,Recover] <= 1
 _r1[10,Do_nothing,Do_nothing] <= 1
 _r1[10,Do_nothing,Recover] <= 1
 _r1[10,R1,Do_nothing] <= 1
 _r1[10,R1,Recover] <= 1
 _r1[10,R2,Do_nothing] <= 1
 _r1[10,R2,Recover] <= 1
 _r1[10,R3,Do_nothing] <= 1
 _r1[10,R3,Recover] <= 1
 _r1[7,Do_nothing,Do_nothing] <= 1
 _r1[7,Do_nothing,Recover] <= 1
 _r1[7,R1,Do_nothing] <= 1
 _r1[7,R1,Recover] <= 1
 _r1[7,R2,Do_nothing] <= 1
 _r1[7,R2,Recover] <= 1
 _r1[7,R3,Do_nothing] <= 1
 _r1[7,R3,Recover] <= 1
 _r1[80,Do_nothing,Do_nothing] <= 1
 _r1[80,Do_nothing,Recover] <= 1
 _r1[80,R1,Do_nothing] <= 1
 _r1[80,R1,Recover] <= 1
 _r1[80,R2,Do_nothing] <= 1
 _r1[80,R2,Recover] <= 1
 _r1[80,R3,Do_nothing] <= 1
 _r1[80,R3,Recover] <= 1
 _r1[124,Do_nothing,Do_nothing] <= 1
 _r1[124,Do_nothing,Recover] <= 1
 _r1[124,R1,Do_nothing] <= 1
 _r1[124,R1,Recover] <= 1
 _r1[124,R2,Do_nothing] <= 1
 _r1[124,R2,Recover] <= 1
 _r1[124,R3,Do_nothing] <= 1
 _r1[124,R3,Recover] <= 1
 _r1[127,Do_nothing,Do_nothing] <= 1
 _r1[127,Do_nothing,Recover] <= 1
 _r1[127,R1,Do_nothing] <= 1
 _r1[127,R1,Recover] <= 1
 _r1[127,R2,Do_nothing] <= 1
 _r1[127,R2,Recover] <= 1
 _r1[127,R3,Do_nothing] <= 1
 _r1[127,R3,Recover] <= 1
 _r1[40,Do_nothing,Do_nothing] <= 1
 _r1[40,Do_nothing,Recover] <= 1
 _r1[40,R1,Do_nothing] <= 1
 _r1[40,R1,Recover] <= 1
 _r1[40,R2,Do_nothing] <= 1
 _r1[40,R2,Recover] <= 1
 _r1[40,R3,Do_nothing] <= 1
 _r1[40,R3,Recover] <= 1
 _r1[103,Do_nothing,Do_nothing] <= 1
 _r1[103,Do_nothing,Recover] <= 1
 _r1[103,R1,Do_nothing] <= 1
 _r1[103,R1,Recover] <= 1
 _r1[103,R2,Do_nothing] <= 1
 _r1[103,R2,Recover] <= 1
 _r1[103,R3,Do_nothing] <= 1
 _r1[103,R3,Recover] <= 1
 _r1[118,Do_nothing,Do_nothing] <= 1
 _r1[118,Do_nothing,Recover] <= 1
 _r1[118,R1,Do_nothing] <= 1
 _r1[118,R1,Recover] <= 1
 _r1[118,R2,Do_nothing] <= 1
 _r1[118,R2,Recover] <= 1
 _r1[118,R3,Do_nothing] <= 1
 _r1[118,R3,Recover] <= 1
 _r1[136,Do_nothing,Do_nothing] <= 1
 _r1[136,Do_nothing,Recover] <= 1
 _r1[136,R1,Do_nothing] <= 1
 _r1[136,R1,Recover] <= 1
 _r1[136,R2,Do_nothing] <= 1
 _r1[136,R2,Recover] <= 1
 _r1[136,R3,Do_nothing] <= 1
 _r1[136,R3,Recover] <= 1
 _r1[65,Do_nothing,Do_nothing] <= 1
 _r1[65,Do_nothing,Recover] <= 1
 _r1[65,R1,Do_nothing] <= 1
 _r1[65,R1,Recover] <= 1
 _r1[65,R2,Do_nothing] <= 1
 _r1[65,R2,Recover] <= 1
 _r1[65,R3,Do_nothing] <= 1
 _r1[65,R3,Recover] <= 1
 _r1[62,Do_nothing,Do_nothing] <= 1
 _r1[62,Do_nothing,Recover] <= 1
 _r1[62,R1,Do_nothing] <= 1
 _r1[62,R1,Recover] <= 1
 _r1[62,R2,Do_nothing] <= 1
 _r1[62,R2,Recover] <= 1
 _r1[62,R3,Do_nothing] <= 1
 _r1[62,R3,Recover] <= 1
 _r1[125,Do_nothing,Do_nothing] <= 1
 _r1[125,Do_nothing,Recover] <= 1
 _r1[125,R1,Do_nothing] <= 1
 _r1[125,R1,Recover] <= 1
 _r1[125,R2,Do_nothing] <= 1
 _r1[125,R2,Recover] <= 1
 _r1[125,R3,Do_nothing] <= 1
 _r1[125,R3,Recover] <= 1
 _r1[60,Do_nothing,Do_nothing] <= 1
 _r1[60,Do_nothing,Recover] <= 1
 _r1[60,R1,Do_nothing] <= 1
 _r1[60,R1,Recover] <= 1
 _r1[60,R2,Do_nothing] <= 1
 _r1[60,R2,Recover] <= 1
 _r1[60,R3,Do_nothing] <= 1
 _r1[60,R3,Recover] <= 1
 _r1[17,Do_nothing,Do_nothing] <= 1
 _r1[17,Do_nothing,Recover] <= 1
 _r1[17,R1,Do_nothing] <= 1
 _r1[17,R1,Recover] <= 1
 _r1[17,R2,Do_nothing] <= 1
 _r1[17,R2,Recover] <= 1
 _r1[17,R3,Do_nothing] <= 1
 _r1[17,R3,Recover] <= 1
 _r1[53,Do_nothing,Do_nothing] <= 1
 _r1[53,Do_nothing,Recover] <= 1
 _r1[53,R1,Do_nothing] <= 1
 _r1[53,R1,Recover] <= 1
 _r1[53,R2,Do_nothing] <= 1
 _r1[53,R2,Recover] <= 1
 _r1[53,R3,Do_nothing] <= 1
 _r1[53,R3,Recover] <= 1
 _r1[131,Do_nothing,Do_nothing] <= 1
 _r1[131,Do_nothing,Recover] <= 1
 _r1[131,R1,Do_nothing] <= 1
 _r1[131,R1,Recover] <= 1
 _r1[131,R2,Do_nothing] <= 1
 _r1[131,R2,Recover] <= 1
 _r1[131,R3,Do_nothing] <= 1
 _r1[131,R3,Recover] <= 1
 _r1[55,Do_nothing,Do_nothing] <= 1
 _r1[55,Do_nothing,Recover] <= 1
 _r1[55,R1,Do_nothing] <= 1
 _r1[55,R1,Recover] <= 1
 _r1[55,R2,Do_nothing] <= 1
 _r1[55,R2,Recover] <= 1
 _r1[55,R3,Do_nothing] <= 1
 _r1[55,R3,Recover] <= 1
 _r1[58,Do_nothing,Do_nothing] <= 1
 _r1[58,Do_nothing,Recover] <= 1
 _r1[58,R1,Do_nothing] <= 1
 _r1[58,R1,Recover] <= 1
 _r1[58,R2,Do_nothing] <= 1
 _r1[58,R2,Recover] <= 1
 _r1[58,R3,Do_nothing] <= 1
 _r1[58,R3,Recover] <= 1
 _r1[107,Do_nothing,Do_nothing] <= 1
 _r1[107,Do_nothing,Recover] <= 1
 _r1[107,R1,Do_nothing] <= 1
 _r1[107,R1,Recover] <= 1
 _r1[107,R2,Do_nothing] <= 1
 _r1[107,R2,Recover] <= 1
 _r1[107,R3,Do_nothing] <= 1
 _r1[107,R3,Recover] <= 1
 _r1[4,Do_nothing,Do_nothing] <= 1
 _r1[4,Do_nothing,Recover] <= 1
 _r1[4,R1,Do_nothing] <= 1
 _r1[4,R1,Recover] <= 1
 _r1[4,R2,Do_nothing] <= 1
 _r1[4,R2,Recover] <= 1
 _r1[4,R3,Do_nothing] <= 1
 _r1[4,R3,Recover] <= 1
 _r1[149,Do_nothing,Do_nothing] <= 1
 _r1[149,Do_nothing,Recover] <= 1
 _r1[149,R1,Do_nothing] <= 1
 _r1[149,R1,Recover] <= 1
 _r1[149,R2,Do_nothing] <= 1
 _r1[149,R2,Recover] <= 1
 _r1[149,R3,Do_nothing] <= 1
 _r1[149,R3,Recover] <= 1
 _r1[63,Do_nothing,Do_nothing] <= 1
 _r1[63,Do_nothing,Recover] <= 1
 _r1[63,R1,Do_nothing] <= 1
 _r1[63,R1,Recover] <= 1
 _r1[63,R2,Do_nothing] <= 1
 _r1[63,R2,Recover] <= 1
 _r1[63,R3,Do_nothing] <= 1
 _r1[63,R3,Recover] <= 1
 _r1[57,Do_nothing,Do_nothing] <= 1
 _r1[57,Do_nothing,Recover] <= 1
 _r1[57,R1,Do_nothing] <= 1
 _r1[57,R1,Recover] <= 1
 _r1[57,R2,Do_nothing] <= 1
 _r1[57,R2,Recover] <= 1
 _r1[57,R3,Do_nothing] <= 1
 _r1[57,R3,Recover] <= 1
 _r1[23,Do_nothing,Do_nothing] <= 1
 _r1[23,Do_nothing,Recover] <= 1
 _r1[23,R1,Do_nothing] <= 1
 _r1[23,R1,Recover] <= 1
 _r1[23,R2,Do_nothing] <= 1
 _r1[23,R2,Recover] <= 1
 _r1[23,R3,Do_nothing] <= 1
 _r1[23,R3,Recover] <= 1
 _r1[117,Do_nothing,Do_nothing] <= 1
 _r1[117,Do_nothing,Recover] <= 1
 _r1[117,R1,Do_nothing] <= 1
 _r1[117,R1,Recover] <= 1
 _r1[117,R2,Do_nothing] <= 1
 _r1[117,R2,Recover] <= 1
 _r1[117,R3,Do_nothing] <= 1
 _r1[117,R3,Recover] <= 1
 _r1[108,Do_nothing,Do_nothing] <= 1
 _r1[108,Do_nothing,Recover] <= 1
 _r1[108,R1,Do_nothing] <= 1
 _r1[108,R1,Recover] <= 1
 _r1[108,R2,Do_nothing] <= 1
 _r1[108,R2,Recover] <= 1
 _r1[108,R3,Do_nothing] <= 1
 _r1[108,R3,Recover] <= 1
 _r1[138,Do_nothing,Do_nothing] <= 1
 _r1[138,Do_nothing,Recover] <= 1
 _r1[138,R1,Do_nothing] <= 1
 _r1[138,R1,Recover] <= 1
 _r1[138,R2,Do_nothing] <= 1
 _r1[138,R2,Recover] <= 1
 _r1[138,R3,Do_nothing] <= 1
 _r1[138,R3,Recover] <= 1
 _r1[6,Do_nothing,Do_nothing] <= 1
 _r1[6,Do_nothing,Recover] <= 1
 _r1[6,R1,Do_nothing] <= 1
 _r1[6,R1,Recover] <= 1
 _r1[6,R2,Do_nothing] <= 1
 _r1[6,R2,Recover] <= 1
 _r1[6,R3,Do_nothing] <= 1
 _r1[6,R3,Recover] <= 1
 _r1[86,Do_nothing,Do_nothing] <= 1
 _r1[86,Do_nothing,Recover] <= 1
 _r1[86,R1,Do_nothing] <= 1
 _r1[86,R1,Recover] <= 1
 _r1[86,R2,Do_nothing] <= 1
 _r1[86,R2,Recover] <= 1
 _r1[86,R3,Do_nothing] <= 1
 _r1[86,R3,Recover] <= 1
 _r1[121,Do_nothing,Do_nothing] <= 1
 _r1[121,Do_nothing,Recover] <= 1
 _r1[121,R1,Do_nothing] <= 1
 _r1[121,R1,Recover] <= 1
 _r1[121,R2,Do_nothing] <= 1
 _r1[121,R2,Recover] <= 1
 _r1[121,R3,Do_nothing] <= 1
 _r1[121,R3,Recover] <= 1
 _r1[145,Do_nothing,Do_nothing] <= 1
 _r1[145,Do_nothing,Recover] <= 1
 _r1[145,R1,Do_nothing] <= 1
 _r1[145,R1,Recover] <= 1
 _r1[145,R2,Do_nothing] <= 1
 _r1[145,R2,Recover] <= 1
 _r1[145,R3,Do_nothing] <= 1
 _r1[145,R3,Recover] <= 1
 _r1[99,Do_nothing,Do_nothing] <= 1
 _r1[99,Do_nothing,Recover] <= 1
 _r1[99,R1,Do_nothing] <= 1
 _r1[99,R1,Recover] <= 1
 _r1[99,R2,Do_nothing] <= 1
 _r1[99,R2,Recover] <= 1
 _r1[99,R3,Do_nothing] <= 1
 _r1[99,R3,Recover] <= 1
 _r1[21,Do_nothing,Do_nothing] <= 1
 _r1[21,Do_nothing,Recover] <= 1
 _r1[21,R1,Do_nothing] <= 1
 _r1[21,R1,Recover] <= 1
 _r1[21,R2,Do_nothing] <= 1
 _r1[21,R2,Recover] <= 1
 _r1[21,R3,Do_nothing] <= 1
 _r1[21,R3,Recover] <= 1
 _r1[42,Do_nothing,Do_nothing] <= 1
 _r1[42,Do_nothing,Recover] <= 1
 _r1[42,R1,Do_nothing] <= 1
 _r1[42,R1,Recover] <= 1
 _r1[42,R2,Do_nothing] <= 1
 _r1[42,R2,Recover] <= 1
 _r1[42,R3,Do_nothing] <= 1
 _r1[42,R3,Recover] <= 1
 _r1[98,Do_nothing,Do_nothing] <= 1
 _r1[98,Do_nothing,Recover] <= 1
 _r1[98,R1,Do_nothing] <= 1
 _r1[98,R1,Recover] <= 1
 _r1[98,R2,Do_nothing] <= 1
 _r1[98,R2,Recover] <= 1
 _r1[98,R3,Do_nothing] <= 1
 _r1[98,R3,Recover] <= 1
 _r1[100,Do_nothing,Do_nothing] <= 1
 _r1[100,Do_nothing,Recover] <= 1
 _r1[100,R1,Do_nothing] <= 1
 _r1[100,R1,Recover] <= 1
 _r1[100,R2,Do_nothing] <= 1
 _r1[100,R2,Recover] <= 1
 _r1[100,R3,Do_nothing] <= 1
 _r1[100,R3,Recover] <= 1
 _r1[76,Do_nothing,Do_nothing] <= 1
 _r1[76,Do_nothing,Recover] <= 1
 _r1[76,R1,Do_nothing] <= 1
 _r1[76,R1,Recover] <= 1
 _r1[76,R2,Do_nothing] <= 1
 _r1[76,R2,Recover] <= 1
 _r1[76,R3,Do_nothing] <= 1
 _r1[76,R3,Recover] <= 1
 _r1[102,Do_nothing,Do_nothing] <= 1
 _r1[102,Do_nothing,Recover] <= 1
 _r1[102,R1,Do_nothing] <= 1
 _r1[102,R1,Recover] <= 1
 _r1[102,R2,Do_nothing] <= 1
 _r1[102,R2,Recover] <= 1
 _r1[102,R3,Do_nothing] <= 1
 _r1[102,R3,Recover] <= 1
 _r1[141,Do_nothing,Do_nothing] <= 1
 _r1[141,Do_nothing,Recover] <= 1
 _r1[141,R1,Do_nothing] <= 1
 _r1[141,R1,Recover] <= 1
 _r1[141,R2,Do_nothing] <= 1
 _r1[141,R2,Recover] <= 1
 _r1[141,R3,Do_nothing] <= 1
 _r1[141,R3,Recover] <= 1
 _r1[146,Do_nothing,Do_nothing] <= 1
 _r1[146,Do_nothing,Recover] <= 1
 _r1[146,R1,Do_nothing] <= 1
 _r1[146,R1,Recover] <= 1
 _r1[146,R2,Do_nothing] <= 1
 _r1[146,R2,Recover] <= 1
 _r1[146,R3,Do_nothing] <= 1
 _r1[146,R3,Recover] <= 1
 _r1[94,Do_nothing,Do_nothing] <= 1
 _r1[94,Do_nothing,Recover] <= 1
 _r1[94,R1,Do_nothing] <= 1
 _r1[94,R1,Recover] <= 1
 _r1[94,R2,Do_nothing] <= 1
 _r1[94,R2,Recover] <= 1
 _r1[94,R3,Do_nothing] <= 1
 _r1[94,R3,Recover] <= 1
 _r1[79,Do_nothing,Do_nothing] <= 1
 _r1[79,Do_nothing,Recover] <= 1
 _r1[79,R1,Do_nothing] <= 1
 _r1[79,R1,Recover] <= 1
 _r1[79,R2,Do_nothing] <= 1
 _r1[79,R2,Recover] <= 1
 _r1[79,R3,Do_nothing] <= 1
 _r1[79,R3,Recover] <= 1
 _r1[2,Do_nothing,Do_nothing] <= 1
 _r1[2,Do_nothing,Recover] <= 1
 _r1[2,R1,Do_nothing] <= 1
 _r1[2,R1,Recover] <= 1
 _r1[2,R2,Do_nothing] <= 1
 _r1[2,R2,Recover] <= 1
 _r1[2,R3,Do_nothing] <= 1
 _r1[2,R3,Recover] <= 1
 _r1[140,Do_nothing,Do_nothing] <= 1
 _r1[140,Do_nothing,Recover] <= 1
 _r1[140,R1,Do_nothing] <= 1
 _r1[140,R1,Recover] <= 1
 _r1[140,R2,Do_nothing] <= 1
 _r1[140,R2,Recover] <= 1
 _r1[140,R3,Do_nothing] <= 1
 _r1[140,R3,Recover] <= 1
 _r1[77,Do_nothing,Do_nothing] <= 1
 _r1[77,Do_nothing,Recover] <= 1
 _r1[77,R1,Do_nothing] <= 1
 _r1[77,R1,Recover] <= 1
 _r1[77,R2,Do_nothing] <= 1
 _r1[77,R2,Recover] <= 1
 _r1[77,R3,Do_nothing] <= 1
 _r1[77,R3,Recover] <= 1
 _r1[24,Do_nothing,Do_nothing] <= 1
 _r1[24,Do_nothing,Recover] <= 1
 _r1[24,R1,Do_nothing] <= 1
 _r1[24,R1,Recover] <= 1
 _r1[24,R2,Do_nothing] <= 1
 _r1[24,R2,Recover] <= 1
 _r1[24,R3,Do_nothing] <= 1
 _r1[24,R3,Recover] <= 1
 _r1[66,Do_nothing,Do_nothing] <= 1
 _r1[66,Do_nothing,Recover] <= 1
 _r1[66,R1,Do_nothing] <= 1
 _r1[66,R1,Recover] <= 1
 _r1[66,R2,Do_nothing] <= 1
 _r1[66,R2,Recover] <= 1
 _r1[66,R3,Do_nothing] <= 1
 _r1[66,R3,Recover] <= 1
 _r1[8,Do_nothing,Do_nothing] <= 1
 _r1[8,Do_nothing,Recover] <= 1
 _r1[8,R1,Do_nothing] <= 1
 _r1[8,R1,Recover] <= 1
 _r1[8,R2,Do_nothing] <= 1
 _r1[8,R2,Recover] <= 1
 _r1[8,R3,Do_nothing] <= 1
 _r1[8,R3,Recover] <= 1
 _r1[43,Do_nothing,Do_nothing] <= 1
 _r1[43,Do_nothing,Recover] <= 1
 _r1[43,R1,Do_nothing] <= 1
 _r1[43,R1,Recover] <= 1
 _r1[43,R2,Do_nothing] <= 1
 _r1[43,R2,Recover] <= 1
 _r1[43,R3,Do_nothing] <= 1
 _r1[43,R3,Recover] <= 1
 _r1[74,Do_nothing,Do_nothing] <= 1
 _r1[74,Do_nothing,Recover] <= 1
 _r1[74,R1,Do_nothing] <= 1
 _r1[74,R1,Recover] <= 1
 _r1[74,R2,Do_nothing] <= 1
 _r1[74,R2,Recover] <= 1
 _r1[74,R3,Do_nothing] <= 1
 _r1[74,R3,Recover] <= 1
 _r1[35,Do_nothing,Do_nothing] <= 1
 _r1[35,Do_nothing,Recover] <= 1
 _r1[35,R1,Do_nothing] <= 1
 _r1[35,R1,Recover] <= 1
 _r1[35,R2,Do_nothing] <= 1
 _r1[35,R2,Recover] <= 1
 _r1[35,R3,Do_nothing] <= 1
 _r1[35,R3,Recover] <= 1
 _r1[26,Do_nothing,Do_nothing] <= 1
 _r1[26,Do_nothing,Recover] <= 1
 _r1[26,R1,Do_nothing] <= 1
 _r1[26,R1,Recover] <= 1
 _r1[26,R2,Do_nothing] <= 1
 _r1[26,R2,Recover] <= 1
 _r1[26,R3,Do_nothing] <= 1
 _r1[26,R3,Recover] <= 1
 _r1[15,Do_nothing,Do_nothing] <= 1
 _r1[15,Do_nothing,Recover] <= 1
 _r1[15,R1,Do_nothing] <= 1
 _r1[15,R1,Recover] <= 1
 _r1[15,R2,Do_nothing] <= 1
 _r1[15,R2,Recover] <= 1
 _r1[15,R3,Do_nothing] <= 1
 _r1[15,R3,Recover] <= 1
 _r1[56,Do_nothing,Do_nothing] <= 1
 _r1[56,Do_nothing,Recover] <= 1
 _r1[56,R1,Do_nothing] <= 1
 _r1[56,R1,Recover] <= 1
 _r1[56,R2,Do_nothing] <= 1
 _r1[56,R2,Recover] <= 1
 _r1[56,R3,Do_nothing] <= 1
 _r1[56,R3,Recover] <= 1
 _r1[88,Do_nothing,Do_nothing] <= 1
 _r1[88,Do_nothing,Recover] <= 1
 _r1[88,R1,Do_nothing] <= 1
 _r1[88,R1,Recover] <= 1
 _r1[88,R2,Do_nothing] <= 1
 _r1[88,R2,Recover] <= 1
 _r1[88,R3,Do_nothing] <= 1
 _r1[88,R3,Recover] <= 1
 _r1[142,Do_nothing,Do_nothing] <= 1
 _r1[142,Do_nothing,Recover] <= 1
 _r1[142,R1,Do_nothing] <= 1
 _r1[142,R1,Recover] <= 1
 _r1[142,R2,Do_nothing] <= 1
 _r1[142,R2,Recover] <= 1
 _r1[142,R3,Do_nothing] <= 1
 _r1[142,R3,Recover] <= 1
 _r1[113,Do_nothing,Do_nothing] <= 1
 _r1[113,Do_nothing,Recover] <= 1
 _r1[113,R1,Do_nothing] <= 1
 _r1[113,R1,Recover] <= 1
 _r1[113,R2,Do_nothing] <= 1
 _r1[113,R2,Recover] <= 1
 _r1[113,R3,Do_nothing] <= 1
 _r1[113,R3,Recover] <= 1
 _r1[52,Do_nothing,Do_nothing] <= 1
 _r1[52,Do_nothing,Recover] <= 1
 _r1[52,R1,Do_nothing] <= 1
 _r1[52,R1,Recover] <= 1
 _r1[52,R2,Do_nothing] <= 1
 _r1[52,R2,Recover] <= 1
 _r1[52,R3,Do_nothing] <= 1
 _r1[52,R3,Recover] <= 1
 _r1[37,Do_nothing,Do_nothing] <= 1
 _r1[37,Do_nothing,Recover] <= 1
 _r1[37,R1,Do_nothing] <= 1
 _r1[37,R1,Recover] <= 1
 _r1[37,R2,Do_nothing] <= 1
 _r1[37,R2,Recover] <= 1
 _r1[37,R3,Do_nothing] <= 1
 _r1[37,R3,Recover] <= 1
 _r1[78,Do_nothing,Do_nothing] <= 1
 _r1[78,Do_nothing,Recover] <= 1
 _r1[78,R1,Do_nothing] <= 1
 _r1[78,R1,Recover] <= 1
 _r1[78,R2,Do_nothing] <= 1
 _r1[78,R2,Recover] <= 1
 _r1[78,R3,Do_nothing] <= 1
 _r1[78,R3,Recover] <= 1
 _r1[132,Do_nothing,Do_nothing] <= 1
 _r1[132,Do_nothing,Recover] <= 1
 _r1[132,R1,Do_nothing] <= 1
 _r1[132,R1,Recover] <= 1
 _r1[132,R2,Do_nothing] <= 1
 _r1[132,R2,Recover] <= 1
 _r1[132,R3,Do_nothing] <= 1
 _r1[132,R3,Recover] <= 1
 _r1[50,Do_nothing,Do_nothing] <= 1
 _r1[50,Do_nothing,Recover] <= 1
 _r1[50,R1,Do_nothing] <= 1
 _r1[50,R1,Recover] <= 1
 _r1[50,R2,Do_nothing] <= 1
 _r1[50,R2,Recover] <= 1
 _r1[50,R3,Do_nothing] <= 1
 _r1[50,R3,Recover] <= 1
 _r1[144,Do_nothing,Do_nothing] <= 1
 _r1[144,Do_nothing,Recover] <= 1
 _r1[144,R1,Do_nothing] <= 1
 _r1[144,R1,Recover] <= 1
 _r1[144,R2,Do_nothing] <= 1
 _r1[144,R2,Recover] <= 1
 _r1[144,R3,Do_nothing] <= 1
 _r1[144,R3,Recover] <= 1
 _r1[96,Do_nothing,Do_nothing] <= 1
 _r1[96,Do_nothing,Recover] <= 1
 _r1[96,R1,Do_nothing] <= 1
 _r1[96,R1,Recover] <= 1
 _r1[96,R2,Do_nothing] <= 1
 _r1[96,R2,Recover] <= 1
 _r1[96,R3,Do_nothing] <= 1
 _r1[96,R3,Recover] <= 1
 _r1[120,Do_nothing,Do_nothing] <= 1
 _r1[120,Do_nothing,Recover] <= 1
 _r1[120,R1,Do_nothing] <= 1
 _r1[120,R1,Recover] <= 1
 _r1[120,R2,Do_nothing] <= 1
 _r1[120,R2,Recover] <= 1
 _r1[120,R3,Do_nothing] <= 1
 _r1[120,R3,Recover] <= 1
 _r1[22,Do_nothing,Do_nothing] <= 1
 _r1[22,Do_nothing,Recover] <= 1
 _r1[22,R1,Do_nothing] <= 1
 _r1[22,R1,Recover] <= 1
 _r1[22,R2,Do_nothing] <= 1
 _r1[22,R2,Recover] <= 1
 _r1[22,R3,Do_nothing] <= 1
 _r1[22,R3,Recover] <= 1
 _r1[84,Do_nothing,Do_nothing] <= 1
 _r1[84,Do_nothing,Recover] <= 1
 _r1[84,R1,Do_nothing] <= 1
 _r1[84,R1,Recover] <= 1
 _r1[84,R2,Do_nothing] <= 1
 _r1[84,R2,Recover] <= 1
 _r1[84,R3,Do_nothing] <= 1
 _r1[84,R3,Recover] <= 1
 _r1[85,Do_nothing,Do_nothing] <= 1
 _r1[85,Do_nothing,Recover] <= 1
 _r1[85,R1,Do_nothing] <= 1
 _r1[85,R1,Recover] <= 1
 _r1[85,R2,Do_nothing] <= 1
 _r1[85,R2,Recover] <= 1
 _r1[85,R3,Do_nothing] <= 1
 _r1[85,R3,Recover] <= 1
 _r1[16,Do_nothing,Do_nothing] <= 1
 _r1[16,Do_nothing,Recover] <= 1
 _r1[16,R1,Do_nothing] <= 1
 _r1[16,R1,Recover] <= 1
 _r1[16,R2,Do_nothing] <= 1
 _r1[16,R2,Recover] <= 1
 _r1[16,R3,Do_nothing] <= 1
 _r1[16,R3,Recover] <= 1
 _r1[20,Do_nothing,Do_nothing] <= 1
 _r1[20,Do_nothing,Recover] <= 1
 _r1[20,R1,Do_nothing] <= 1
 _r1[20,R1,Recover] <= 1
 _r1[20,R2,Do_nothing] <= 1
 _r1[20,R2,Recover] <= 1
 _r1[20,R3,Do_nothing] <= 1
 _r1[20,R3,Recover] <= 1
 _r1[128,Do_nothing,Do_nothing] <= 1
 _r1[128,Do_nothing,Recover] <= 1
 _r1[128,R1,Do_nothing] <= 1
 _r1[128,R1,Recover] <= 1
 _r1[128,R2,Do_nothing] <= 1
 _r1[128,R2,Recover] <= 1
 _r1[128,R3,Do_nothing] <= 1
 _r1[128,R3,Recover] <= 1
 _r1[54,Do_nothing,Do_nothing] <= 1
 _r1[54,Do_nothing,Recover] <= 1
 _r1[54,R1,Do_nothing] <= 1
 _r1[54,R1,Recover] <= 1
 _r1[54,R2,Do_nothing] <= 1
 _r1[54,R2,Recover] <= 1
 _r1[54,R3,Do_nothing] <= 1
 _r1[54,R3,Recover] <= 1
 _r1[29,Do_nothing,Do_nothing] <= 1
 _r1[29,Do_nothing,Recover] <= 1
 _r1[29,R1,Do_nothing] <= 1
 _r1[29,R1,Recover] <= 1
 _r1[29,R2,Do_nothing] <= 1
 _r1[29,R2,Recover] <= 1
 _r1[29,R3,Do_nothing] <= 1
 _r1[29,R3,Recover] <= 1
 _r1[14,Do_nothing,Do_nothing] <= 1
 _r1[14,Do_nothing,Recover] <= 1
 _r1[14,R1,Do_nothing] <= 1
 _r1[14,R1,Recover] <= 1
 _r1[14,R2,Do_nothing] <= 1
 _r1[14,R2,Recover] <= 1
 _r1[14,R3,Do_nothing] <= 1
 _r1[14,R3,Recover] <= 1
 _r1[38,Do_nothing,Do_nothing] <= 1
 _r1[38,Do_nothing,Recover] <= 1
 _r1[38,R1,Do_nothing] <= 1
 _r1[38,R1,Recover] <= 1
 _r1[38,R2,Do_nothing] <= 1
 _r1[38,R2,Recover] <= 1
 _r1[38,R3,Do_nothing] <= 1
 _r1[38,R3,Recover] <= 1
 _r1[70,Do_nothing,Do_nothing] <= 1
 _r1[70,Do_nothing,Recover] <= 1
 _r1[70,R1,Do_nothing] <= 1
 _r1[70,R1,Recover] <= 1
 _r1[70,R2,Do_nothing] <= 1
 _r1[70,R2,Recover] <= 1
 _r1[70,R3,Do_nothing] <= 1
 _r1[70,R3,Recover] <= 1
 _r1[143,Do_nothing,Do_nothing] <= 1
 _r1[143,Do_nothing,Recover] <= 1
 _r1[143,R1,Do_nothing] <= 1
 _r1[143,R1,Recover] <= 1
 _r1[143,R2,Do_nothing] <= 1
 _r1[143,R2,Recover] <= 1
 _r1[143,R3,Do_nothing] <= 1
 _r1[143,R3,Recover] <= 1
 _r1[48,Do_nothing,Do_nothing] <= 1
 _r1[48,Do_nothing,Recover] <= 1
 _r1[48,R1,Do_nothing] <= 1
 _r1[48,R1,Recover] <= 1
 _r1[48,R2,Do_nothing] <= 1
 _r1[48,R2,Recover] <= 1
 _r1[48,R3,Do_nothing] <= 1
 _r1[48,R3,Recover] <= 1
 _r1[112,Do_nothing,Do_nothing] <= 1
 _r1[112,Do_nothing,Recover] <= 1
 _r1[112,R1,Do_nothing] <= 1
 _r1[112,R1,Recover] <= 1
 _r1[112,R2,Do_nothing] <= 1
 _r1[112,R2,Recover] <= 1
 _r1[112,R3,Do_nothing] <= 1
 _r1[112,R3,Recover] <= 1
 _r1[89,Do_nothing,Do_nothing] <= 1
 _r1[89,Do_nothing,Recover] <= 1
 _r1[89,R1,Do_nothing] <= 1
 _r1[89,R1,Recover] <= 1
 _r1[89,R2,Do_nothing] <= 1
 _r1[89,R2,Recover] <= 1
 _r1[89,R3,Do_nothing] <= 1
 _r1[89,R3,Recover] <= 1
 _r1[129,Do_nothing,Do_nothing] <= 1
 _r1[129,Do_nothing,Recover] <= 1
 _r1[129,R1,Do_nothing] <= 1
 _r1[129,R1,Recover] <= 1
 _r1[129,R2,Do_nothing] <= 1
 _r1[129,R2,Recover] <= 1
 _r1[129,R3,Do_nothing] <= 1
 _r1[129,R3,Recover] <= 1
 _r1[68,Do_nothing,Do_nothing] <= 1
 _r1[68,Do_nothing,Recover] <= 1
 _r1[68,R1,Do_nothing] <= 1
 _r1[68,R1,Recover] <= 1
 _r1[68,R2,Do_nothing] <= 1
 _r1[68,R2,Recover] <= 1
 _r1[68,R3,Do_nothing] <= 1
 _r1[68,R3,Recover] <= 1
 _r1[115,Do_nothing,Do_nothing] <= 1
 _r1[115,Do_nothing,Recover] <= 1
 _r1[115,R1,Do_nothing] <= 1
 _r1[115,R1,Recover] <= 1
 _r1[115,R2,Do_nothing] <= 1
 _r1[115,R2,Recover] <= 1
 _r1[115,R3,Do_nothing] <= 1
 _r1[115,R3,Recover] <= 1
 _r1[111,Do_nothing,Do_nothing] <= 1
 _r1[111,Do_nothing,Recover] <= 1
 _r1[111,R1,Do_nothing] <= 1
 _r1[111,R1,Recover] <= 1
 _r1[111,R2,Do_nothing] <= 1
 _r1[111,R2,Recover] <= 1
 _r1[111,R3,Do_nothing] <= 1
 _r1[111,R3,Recover] <= 1
 _r1[9,Do_nothing,Do_nothing] <= 1
 _r1[9,Do_nothing,Recover] <= 1
 _r1[9,R1,Do_nothing] <= 1
 _r1[9,R1,Recover] <= 1
 _r1[9,R2,Do_nothing] <= 1
 _r1[9,R2,Recover] <= 1
 _r1[9,R3,Do_nothing] <= 1
 _r1[9,R3,Recover] <= 1
 _r1[30,Do_nothing,Do_nothing] <= 1
 _r1[30,Do_nothing,Recover] <= 1
 _r1[30,R1,Do_nothing] <= 1
 _r1[30,R1,Recover] <= 1
 _r1[30,R2,Do_nothing] <= 1
 _r1[30,R2,Recover] <= 1
 _r1[30,R3,Do_nothing] <= 1
 _r1[30,R3,Recover] <= 1
 _r1[5,Do_nothing,Do_nothing] <= 1
 _r1[5,Do_nothing,Recover] <= 1
 _r1[5,R1,Do_nothing] <= 1
 _r1[5,R1,Recover] <= 1
 _r1[5,R2,Do_nothing] <= 1
 _r1[5,R2,Recover] <= 1
 _r1[5,R3,Do_nothing] <= 1
 _r1[5,R3,Recover] <= 1
 _r1[67,Do_nothing,Do_nothing] <= 1
 _r1[67,Do_nothing,Recover] <= 1
 _r1[67,R1,Do_nothing] <= 1
 _r1[67,R1,Recover] <= 1
 _r1[67,R2,Do_nothing] <= 1
 _r1[67,R2,Recover] <= 1
 _r1[67,R3,Do_nothing] <= 1
 _r1[67,R3,Recover] <= 1
 _r1[92,Do_nothing,Do_nothing] <= 1
 _r1[92,Do_nothing,Recover] <= 1
 _r1[92,R1,Do_nothing] <= 1
 _r1[92,R1,Recover] <= 1
 _r1[92,R2,Do_nothing] <= 1
 _r1[92,R2,Recover] <= 1
 _r1[92,R3,Do_nothing] <= 1
 _r1[92,R3,Recover] <= 1
 _r1[122,Do_nothing,Do_nothing] <= 1
 _r1[122,Do_nothing,Recover] <= 1
 _r1[122,R1,Do_nothing] <= 1
 _r1[122,R1,Recover] <= 1
 _r1[122,R2,Do_nothing] <= 1
 _r1[122,R2,Recover] <= 1
 _r1[122,R3,Do_nothing] <= 1
 _r1[122,R3,Recover] <= 1
 _r1[133,Do_nothing,Do_nothing] <= 1
 _r1[133,Do_nothing,Recover] <= 1
 _r1[133,R1,Do_nothing] <= 1
 _r1[133,R1,Recover] <= 1
 _r1[133,R2,Do_nothing] <= 1
 _r1[133,R2,Recover] <= 1
 _r1[133,R3,Do_nothing] <= 1
 _r1[133,R3,Recover] <= 1
 _r1[135,Do_nothing,Do_nothing] <= 1
 _r1[135,Do_nothing,Recover] <= 1
 _r1[135,R1,Do_nothing] <= 1
 _r1[135,R1,Recover] <= 1
 _r1[135,R2,Do_nothing] <= 1
 _r1[135,R2,Recover] <= 1
 _r1[135,R3,Do_nothing] <= 1
 _r1[135,R3,Recover] <= 1
 _r1[73,Do_nothing,Do_nothing] <= 1
 _r1[73,Do_nothing,Recover] <= 1
 _r1[73,R1,Do_nothing] <= 1
 _r1[73,R1,Recover] <= 1
 _r1[73,R2,Do_nothing] <= 1
 _r1[73,R2,Recover] <= 1
 _r1[73,R3,Do_nothing] <= 1
 _r1[73,R3,Recover] <= 1
 _r1[27,Do_nothing,Do_nothing] <= 1
 _r1[27,Do_nothing,Recover] <= 1
 _r1[27,R1,Do_nothing] <= 1
 _r1[27,R1,Recover] <= 1
 _r1[27,R2,Do_nothing] <= 1
 _r1[27,R2,Recover] <= 1
 _r1[27,R3,Do_nothing] <= 1
 _r1[27,R3,Recover] <= 1
 _r1[32,Do_nothing,Do_nothing] <= 1
 _r1[32,Do_nothing,Recover] <= 1
 _r1[32,R1,Do_nothing] <= 1
 _r1[32,R1,Recover] <= 1
 _r1[32,R2,Do_nothing] <= 1
 _r1[32,R2,Recover] <= 1
 _r1[32,R3,Do_nothing] <= 1
 _r1[32,R3,Recover] <= 1
 _r1[18,Do_nothing,Do_nothing] <= 1
 _r1[18,Do_nothing,Recover] <= 1
 _r1[18,R1,Do_nothing] <= 1
 _r1[18,R1,Recover] <= 1
 _r1[18,R2,Do_nothing] <= 1
 _r1[18,R2,Recover] <= 1
 _r1[18,R3,Do_nothing] <= 1
 _r1[18,R3,Recover] <= 1
 _r1[45,Do_nothing,Do_nothing] <= 1
 _r1[45,Do_nothing,Recover] <= 1
 _r1[45,R1,Do_nothing] <= 1
 _r1[45,R1,Recover] <= 1
 _r1[45,R2,Do_nothing] <= 1
 _r1[45,R2,Recover] <= 1
 _r1[45,R3,Do_nothing] <= 1
 _r1[45,R3,Recover] <= 1
 _r1[91,Do_nothing,Do_nothing] <= 1
 _r1[91,Do_nothing,Recover] <= 1
 _r1[91,R1,Do_nothing] <= 1
 _r1[91,R1,Recover] <= 1
 _r1[91,R2,Do_nothing] <= 1
 _r1[91,R2,Recover] <= 1
 _r1[91,R3,Do_nothing] <= 1
 _r1[91,R3,Recover] <= 1
 _r1[101,Do_nothing,Do_nothing] <= 1
 _r1[101,Do_nothing,Recover] <= 1
 _r1[101,R1,Do_nothing] <= 1
 _r1[101,R1,Recover] <= 1
 _r1[101,R2,Do_nothing] <= 1
 _r1[101,R2,Recover] <= 1
 _r1[101,R3,Do_nothing] <= 1
 _r1[101,R3,Recover] <= 1
 _r1[49,Do_nothing,Do_nothing] <= 1
 _r1[49,Do_nothing,Recover] <= 1
 _r1[49,R1,Do_nothing] <= 1
 _r1[49,R1,Recover] <= 1
 _r1[49,R2,Do_nothing] <= 1
 _r1[49,R2,Recover] <= 1
 _r1[49,R3,Do_nothing] <= 1
 _r1[49,R3,Recover] <= 1
 _r1[83,Do_nothing,Do_nothing] <= 1
 _r1[83,Do_nothing,Recover] <= 1
 _r1[83,R1,Do_nothing] <= 1
 _r1[83,R1,Recover] <= 1
 _r1[83,R2,Do_nothing] <= 1
 _r1[83,R2,Recover] <= 1
 _r1[83,R3,Do_nothing] <= 1
 _r1[83,R3,Recover] <= 1
Binaries
 _f[105,Do_nothing] _f[105,R1] _f[105,R2] _f[105,R3] _f[19,Do_nothing]
 _f[19,R1] _f[19,R2] _f[19,R3] _f[150,Do_nothing] _f[150,R1] _f[150,R2]
 _f[150,R3] _f[61,Do_nothing] _f[61,R1] _f[61,R2] _f[61,R3]
 _f[109,Do_nothing] _f[109,R1] _f[109,R2] _f[109,R3] _f[126,Do_nothing]
 _f[126,R1] _f[126,R2] _f[126,R3] _f[137,Do_nothing] _f[137,R1] _f[137,R2]
 _f[137,R3] _f[31,Do_nothing] _f[31,R1] _f[31,R2] _f[31,R3]
 _f[1,Do_nothing] _f[1,R1] _f[1,R2] _f[1,R3] _f[51,Do_nothing] _f[51,R1]
 _f[51,R2] _f[51,R3] _f[39,Do_nothing] _f[39,R1] _f[39,R2] _f[39,R3]
 _f[81,Do_nothing] _f[81,R1] _f[81,R2] _f[81,R3] _f[147,Do_nothing]
 _f[147,R1] _f[147,R2] _f[147,R3] _f[44,Do_nothing] _f[44,R1] _f[44,R2]
 _f[44,R3] _f[97,Do_nothing] _f[97,R1] _f[97,R2] _f[97,R3]
 _f[71,Do_nothing] _f[71,R1] _f[71,R2] _f[71,R3] _f[134,Do_nothing]
 _f[134,R1] _f[134,R2] _f[134,R3] _f[11,Do_nothing] _f[11,R1] _f[11,R2]
 _f[11,R3] _f[69,Do_nothing] _f[69,R1] _f[69,R2] _f[69,R3]
 _f[12,Do_nothing] _f[12,R1] _f[12,R2] _f[12,R3] _f[87,Do_nothing]
 _f[87,R1] _f[87,R2] _f[87,R3] _f[123,Do_nothing] _f[123,R1] _f[123,R2]
 _f[123,R3] _f[148,Do_nothing] _f[148,R1] _f[148,R2] _f[148,R3]
 _f[41,Do_nothing] _f[41,R1] _f[41,R2] _f[41,R3] _f[106,Do_nothing]
 _f[106,R1] _f[106,R2] _f[106,R3] _f[34,Do_nothing] _f[34,R1] _f[34,R2]
 _f[34,R3] _f[114,Do_nothing] _f[114,R1] _f[114,R2] _f[114,R3]
 _f[47,Do_nothing] _f[47,R1] _f[47,R2] _f[47,R3] _f[75,Do_nothing]
 _f[75,R1] _f[75,R2] _f[75,R3] _f[119,Do_nothing] _f[119,R1] _f[119,R2]
 _f[119,R3] _f[28,Do_nothing] _f[28,R1] _f[28,R2] _f[28,R3]
 _f[93,Do_nothing] _f[93,R1] _f[93,R2] _f[93,R3] _f[59,Do_nothing]
 _f[59,R1] _f[59,R2] _f[59,R3] _f[90,Do_nothing] _f[90,R1] _f[90,R2]
 _f[90,R3] _f[95,Do_nothing] _f[95,R1] _f[95,R2] _f[95,R3] _f[3,Do_nothing]
 _f[3,R1] _f[3,R2] _f[3,R3] _f[82,Do_nothing] _f[82,R1] _f[82,R2] _f[82,R3]
 _f[72,Do_nothing] _f[72,R1] _f[72,R2] _f[72,R3] _f[46,Do_nothing]
 _f[46,R1] _f[46,R2] _f[46,R3] _f[33,Do_nothing] _f[33,R1] _f[33,R2]
 _f[33,R3] _f[116,Do_nothing] _f[116,R1] _f[116,R2] _f[116,R3]
 _f[13,Do_nothing] _f[13,R1] _f[13,R2] _f[13,R3] _f[104,Do_nothing]
 _f[104,R1] _f[104,R2] _f[104,R3] _f[130,Do_nothing] _f[130,R1] _f[130,R2]
 _f[130,R3] _f[139,Do_nothing] _f[139,R1] _f[139,R2] _f[139,R3]
 _f[36,Do_nothing] _f[36,R1] _f[36,R2] _f[36,R3] _f[25,Do_nothing]
 _f[25,R1] _f[25,R2] _f[25,R3] _f[64,Do_nothing] _f[64,R1] _f[64,R2]
 _f[64,R3] _f[110,Do_nothing] _f[110,R1] _f[110,R2] _f[110,R3]
 _f[10,Do_nothing] _f[10,R1] _f[10,R2] _f[10,R3] _f[7,Do_nothing] _f[7,R1]
 _f[7,R2] _f[7,R3] _f[80,Do_nothing] _f[80,R1] _f[80,R2] _f[80,R3]
 _f[124,Do_nothing] _f[124,R1] _f[124,R2] _f[124,R3] _f[127,Do_nothing]
 _f[127,R1] _f[127,R2] _f[127,R3] _f[40,Do_nothing] _f[40,R1] _f[40,R2]
 _f[40,R3] _f[103,Do_nothing] _f[103,R1] _f[103,R2] _f[103,R3]
 _f[118,Do_nothing] _f[118,R1] _f[118,R2] _f[118,R3] _f[136,Do_nothing]
 _f[136,R1] _f[136,R2] _f[136,R3] _f[65,Do_nothing] _f[65,R1] _f[65,R2]
 _f[65,R3] _f[62,Do_nothing] _f[62,R1] _f[62,R2] _f[62,R3]
 _f[125,Do_nothing] _f[125,R1] _f[125,R2] _f[125,R3] _f[60,Do_nothing]
 _f[60,R1] _f[60,R2] _f[60,R3] _f[17,Do_nothing] _f[17,R1] _f[17,R2]
 _f[17,R3] _f[53,Do_nothing] _f[53,R1] _f[53,R2] _f[53,R3]
 _f[131,Do_nothing] _f[131,R1] _f[131,R2] _f[131,R3] _f[55,Do_nothing]
 _f[55,R1] _f[55,R2] _f[55,R3] _f[58,Do_nothing] _f[58,R1] _f[58,R2]
 _f[58,R3] _f[107,Do_nothing] _f[107,R1] _f[107,R2] _f[107,R3]
 _f[4,Do_nothing] _f[4,R1] _f[4,R2] _f[4,R3] _f[149,Do_nothing] _f[149,R1]
 _f[149,R2] _f[149,R3] _f[63,Do_nothing] _f[63,R1] _f[63,R2] _f[63,R3]
 _f[57,Do_nothing] _f[57,R1] _f[57,R2] _f[57,R3] _f[23,Do_nothing]
 _f[23,R1] _f[23,R2] _f[23,R3] _f[117,Do_nothing] _f[117,R1] _f[117,R2]
 _f[117,R3] _f[108,Do_nothing] _f[108,R1] _f[108,R2] _f[108,R3]
 _f[138,Do_nothing] _f[138,R1] _f[138,R2] _f[138,R3] _f[6,Do_nothing]
 _f[6,R1] _f[6,R2] _f[6,R3] _f[86,Do_nothing] _f[86,R1] _f[86,R2] _f[86,R3]
 _f[121,Do_nothing] _f[121,R1] _f[121,R2] _f[121,R3] _f[145,Do_nothing]
 _f[145,R1] _f[145,R2] _f[145,R3] _f[99,Do_nothing] _f[99,R1] _f[99,R2]
 _f[99,R3] _f[21,Do_nothing] _f[21,R1] _f[21,R2] _f[21,R3]
 _f[42,Do_nothing] _f[42,R1] _f[42,R2] _f[42,R3] _f[98,Do_nothing]
 _f[98,R1] _f[98,R2] _f[98,R3] _f[100,Do_nothing] _f[100,R1] _f[100,R2]
 _f[100,R3] _f[76,Do_nothing] _f[76,R1] _f[76,R2] _f[76,R3]
 _f[102,Do_nothing] _f[102,R1] _f[102,R2] _f[102,R3] _f[141,Do_nothing]
 _f[141,R1] _f[141,R2] _f[141,R3] _f[146,Do_nothing] _f[146,R1] _f[146,R2]
 _f[146,R3] _f[94,Do_nothing] _f[94,R1] _f[94,R2] _f[94,R3]
 _f[79,Do_nothing] _f[79,R1] _f[79,R2] _f[79,R3] _f[2,Do_nothing] _f[2,R1]
 _f[2,R2] _f[2,R3] _f[140,Do_nothing] _f[140,R1] _f[140,R2] _f[140,R3]
 _f[77,Do_nothing] _f[77,R1] _f[77,R2] _f[77,R3] _f[24,Do_nothing]
 _f[24,R1] _f[24,R2] _f[24,R3] _f[66,Do_nothing] _f[66,R1] _f[66,R2]
 _f[66,R3] _f[8,Do_nothing] _f[8,R1] _f[8,R2] _f[8,R3] _f[43,Do_nothing]
 _f[43,R1] _f[43,R2] _f[43,R3] _f[74,Do_nothing] _f[74,R1] _f[74,R2]
 _f[74,R3] _f[35,Do_nothing] _f[35,R1] _f[35,R2] _f[35,R3]
 _f[26,Do_nothing] _f[26,R1] _f[26,R2] _f[26,R3] _f[15,Do_nothing]
 _f[15,R1] _f[15,R2] _f[15,R3] _f[56,Do_nothing] _f[56,R1] _f[56,R2]
 _f[56,R3] _f[88,Do_nothing] _f[88,R1] _f[88,R2] _f[88,R3]
 _f[142,Do_nothing] _f[142,R1] _f[142,R2] _f[142,R3] _f[113,Do_nothing]
 _f[113,R1] _f[113,R2] _f[113,R3] _f[52,Do_nothing] _f[52,R1] _f[52,R2]
 _f[52,R3] _f[37,Do_nothing] _f[37,R1] _f[37,R2] _f[37,R3]
 _f[78,Do_nothing] _f[78,R1] _f[78,R2] _f[78,R3] _f[132,Do_nothing]
 _f[132,R1] _f[132,R2] _f[132,R3] _f[50,Do_nothing] _f[50,R1] _f[50,R2]
 _f[50,R3] _f[144,Do_nothing] _f[144,R1] _f[144,R2] _f[144,R3]
 _f[96,Do_nothing] _f[96,R1] _f[96,R2] _f[96,R3] _f[120,Do_nothing]
 _f[120,R1] _f[120,R2] _f[120,R3] _f[22,Do_nothing] _f[22,R1] _f[22,R2]
 _f[22,R3] _f[84,Do_nothing] _f[84,R1] _f[84,R2] _f[84,R3]
 _f[85,Do_nothing] _f[85,R1] _f[85,R2] _f[85,R3] _f[16,Do_nothing]
 _f[16,R1] _f[16,R2] _f[16,R3] _f[20,Do_nothing] _f[20,R1] _f[20,R2]
 _f[20,R3] _f[128,Do_nothing] _f[128,R1] _f[128,R2] _f[128,R3]
 _f[54,Do_nothing] _f[54,R1] _f[54,R2] _f[54,R3] _f[29,Do_nothing]
 _f[29,R1] _f[29,R2] _f[29,R3] _f[14,Do_nothing] _f[14,R1] _f[14,R2]
 _f[14,R3] _f[38,Do_nothing] _f[38,R1] _f[38,R2] _f[38,R3]
 _f[70,Do_nothing] _f[70,R1] _f[70,R2] _f[70,R3] _f[143,Do_nothing]
 _f[143,R1] _f[143,R2] _f[143,R3] _f[48,Do_nothing] _f[48,R1] _f[48,R2]
 _f[48,R3] _f[112,Do_nothing] _f[112,R1] _f[112,R2] _f[112,R3]
 _f[89,Do_nothing] _f[89,R1] _f[89,R2] _f[89,R3] _f[129,Do_nothing]
 _f[129,R1] _f[129,R2] _f[129,R3] _f[68,Do_nothing] _f[68,R1] _f[68,R2]
 _f[68,R3] _f[115,Do_nothing] _f[115,R1] _f[115,R2] _f[115,R3]
 _f[111,Do_nothing] _f[111,R1] _f[111,R2] _f[111,R3] _f[9,Do_nothing]
 _f[9,R1] _f[9,R2] _f[9,R3] _f[30,Do_nothing] _f[30,R1] _f[30,R2] _f[30,R3]
 _f[5,Do_nothing] _f[5,R1] _f[5,R2] _f[5,R3] _f[67,Do_nothing] _f[67,R1]
 _f[67,R2] _f[67,R3] _f[92,Do_nothing] _f[92,R1] _f[92,R2] _f[92,R3]
 _f[122,Do_nothing] _f[122,R1] _f[122,R2] _f[122,R3] _f[133,Do_nothing]
 _f[133,R1] _f[133,R2] _f[133,R3] _f[135,Do_nothing] _f[135,R1] _f[135,R2]
 _f[135,R3] _f[73,Do_nothing] _f[73,R1] _f[73,R2] _f[73,R3]
 _f[27,Do_nothing] _f[27,R1] _f[27,R2] _f[27,R3] _f[32,Do_nothing]
 _f[32,R1] _f[32,R2] _f[32,R3] _f[18,Do_nothing] _f[18,R1] _f[18,R2]
 _f[18,R3] _f[45,Do_nothing] _f[45,R1] _f[45,R2] _f[45,R3]
 _f[91,Do_nothing] _f[91,R1] _f[91,R2] _f[91,R3] _f[101,Do_nothing]
 _f[101,R1] _f[101,R2] _f[101,R3] _f[49,Do_nothing] _f[49,R1] _f[49,R2]
 _f[49,R3] _f[83,Do_nothing] _f[83,R1] _f[83,R2] _f[83,R3]
End
