\ Model subproblem_model
\ LP format - for model browsing. Use MPS format to capture full model detail.
Maximize
  _eta
Subject To
 R0: _z[32] + _z[63] <= 1
 R1: _z[32] + _z[37] <= 1
 R2: _z[32] + _z[60] <= 1
 R3: _z[32] + _z[59] <= 1
 R4: _z[32] + _z[4] <= 1
 R5: _z[32] + _z[87] <= 1
 R6: _z[32] + _z[84] <= 1
 R7: _z[32] + _z[39] <= 1
 R8: _z[32] + _z[51] <= 1
 R9: _z[32] + _z[52] <= 1
 R10: _z[32] + _z[6] <= 1
 R11: _z[32] + _z[96] <= 1
 R12: _z[32] + _z[74] <= 1
 R13: _z[32] + _z[86] <= 1
 R14: _z[32] + _z[29] <= 1
 R15: _z[32] + _z[18] <= 1
 R16: _z[32] + _z[24] <= 1
 R17: _z[32] + _z[94] <= 1
 R18: _z[32] + _z[33] <= 1
 R19: _z[32] + _z[12] <= 1
 R20: _z[32] + _z[57] <= 1
 R21: _z[32] + _z[97] <= 1
 R22: _z[32] + _z[69] <= 1
 R23: _z[32] + _z[3] <= 1
 R24: _z[32] + _z[66] <= 1
 R25: _z[70] + _z[63] <= 1
 R26: _z[70] + _z[87] <= 1
 R27: _z[70] + _z[84] <= 1
 R28: _z[70] + _z[39] <= 1
 R29: _z[70] + _z[52] <= 1
 R30: _z[70] + _z[96] <= 1
 R31: _z[70] + _z[74] <= 1
 R32: _z[70] + _z[86] <= 1
 R33: _z[70] + _z[29] <= 1
 R34: _z[70] + _z[18] <= 1
 R35: _z[70] + _z[24] <= 1
 R36: _z[70] + _z[94] <= 1
 R37: _z[70] + _z[33] <= 1
 R38: _z[70] + _z[12] <= 1
 R39: _z[70] + _z[57] <= 1
 R40: _z[70] + _z[97] <= 1
 R41: _z[70] + _z[69] <= 1
 R42: _z[70] + _z[3] <= 1
 R43: _z[70] + _z[66] <= 1
 R44: _z[5] + _z[63] <= 1
 R45: _z[5] + _z[37] <= 1
 R46: _z[5] + _z[87] <= 1
 R47: _z[5] + _z[84] <= 1
 R48: _z[5] + _z[39] <= 1
 R49: _z[5] + _z[52] <= 1
 R50: _z[5] + _z[86] <= 1
 R51: _z[5] + _z[29] <= 1
 R52: _z[5] + _z[18] <= 1
 R53: _z[5] + _z[94] <= 1
 R54: _z[5] + _z[33] <= 1
 R55: _z[5] + _z[12] <= 1
 R56: _z[5] + _z[57] <= 1
 R57: _z[5] + _z[97] <= 1
 R58: _z[5] + _z[69] <= 1
 R59: _z[5] + _z[3] <= 1
 R60: _z[5] + _z[66] <= 1
 R61: _z[85] + _z[63] <= 1
 R62: _z[85] + _z[37] <= 1
 R63: _z[85] + _z[4] <= 1
 R64: _z[85] + _z[87] <= 1
 R65: _z[85] + _z[84] <= 1
 R66: _z[85] + _z[39] <= 1
 R67: _z[85] + _z[52] <= 1
 R68: _z[85] + _z[86] <= 1
 R69: _z[85] + _z[29] <= 1
 R70: _z[85] + _z[18] <= 1
 R71: _z[85] + _z[94] <= 1
 R72: _z[85] + _z[33] <= 1
 R73: _z[85] + _z[12] <= 1
 R74: _z[85] + _z[57] <= 1
 R75: _z[85] + _z[97] <= 1
 R76: _z[85] + _z[69] <= 1
 R77: _z[85] + _z[3] <= 1
 R78: _z[85] + _z[66] <= 1
 R79: _z[71] + _z[63] <= 1
 R80: _z[71] + _z[14] <= 1
 R81: _z[71] + _z[37] <= 1
 R82: _z[71] + _z[60] <= 1
 R83: _z[71] + _z[59] <= 1
 R84: _z[71] + _z[4] <= 1
 R85: _z[71] + _z[87] <= 1
 R86: _z[71] + _z[84] <= 1
 R87: _z[71] + _z[39] <= 1
 R88: _z[71] + _z[51] <= 1
 R89: _z[71] + _z[52] <= 1
 R90: _z[71] + _z[96] <= 1
 R91: _z[71] + _z[86] <= 1
 R92: _z[71] + _z[29] <= 1
 R93: _z[71] + _z[18] <= 1
 R94: _z[71] + _z[24] <= 1
 R95: _z[71] + _z[94] <= 1
 R96: _z[71] + _z[33] <= 1
 R97: _z[71] + _z[12] <= 1
 R98: _z[71] + _z[57] <= 1
 R99: _z[71] + _z[97] <= 1
 R100: _z[71] + _z[69] <= 1
 R101: _z[71] + _z[3] <= 1
 R102: _z[71] + _z[66] <= 1
 R103: _z[92] + _z[39] <= 1
 R104: _z[92] + _z[86] <= 1
 R105: _z[92] + _z[18] <= 1
 R106: _z[92] + _z[94] <= 1
 R107: _z[92] + _z[33] <= 1
 R108: _z[92] + _z[12] <= 1
 R109: _z[92] + _z[57] <= 1
 R110: _z[92] + _z[97] <= 1
 R111: _z[92] + _z[69] <= 1
 R112: _z[92] + _z[3] <= 1
 R113: _z[92] + _z[66] <= 1
 R114: _z[38] + _z[86] <= 1
 R115: _z[38] + _z[94] <= 1
 R116: _z[38] + _z[33] <= 1
 R117: _z[38] + _z[12] <= 1
 R118: _z[38] + _z[57] <= 1
 R119: _z[38] + _z[97] <= 1
 R120: _z[38] + _z[69] <= 1
 R121: _z[38] + _z[3] <= 1
 R122: _z[38] + _z[66] <= 1
 R123: _z[21] + _z[63] <= 1
 R124: _z[21] + _z[37] <= 1
 R125: _z[21] + _z[87] <= 1
 R126: _z[21] + _z[39] <= 1
 R127: _z[21] + _z[52] <= 1
 R128: _z[21] + _z[86] <= 1
 R129: _z[21] + _z[18] <= 1
 R130: _z[21] + _z[94] <= 1
 R131: _z[21] + _z[33] <= 1
 R132: _z[21] + _z[12] <= 1
 R133: _z[21] + _z[57] <= 1
 R134: _z[21] + _z[97] <= 1
 R135: _z[21] + _z[69] <= 1
 R136: _z[21] + _z[3] <= 1
 R137: _z[21] + _z[66] <= 1
 R138: _z[41] + _z[16] <= 1
 R139: _z[41] + _z[30] <= 1
 R140: _z[41] + _z[74] <= 1
 R141: _z[41] + _z[33] <= 1
 R142: _z[41] + _z[12] <= 1
 R143: _z[41] + _z[57] <= 1
 R144: _z[41] + _z[97] <= 1
 R145: _z[41] + _z[69] <= 1
 R146: _z[41] + _z[3] <= 1
 R147: _z[41] + _z[66] <= 1
 R148: _z[56] + _z[39] <= 1
 R149: _z[56] + _z[86] <= 1
 R150: _z[56] + _z[18] <= 1
 R151: _z[56] + _z[94] <= 1
 R152: _z[56] + _z[33] <= 1
 R153: _z[56] + _z[12] <= 1
 R154: _z[56] + _z[57] <= 1
 R155: _z[56] + _z[97] <= 1
 R156: _z[56] + _z[69] <= 1
 R157: _z[56] + _z[3] <= 1
 R158: _z[56] + _z[66] <= 1
 R159: _z[80] + _z[63] <= 1
 R160: _z[80] + _z[39] <= 1
 R161: _z[80] + _z[86] <= 1
 R162: _z[80] + _z[18] <= 1
 R163: _z[80] + _z[94] <= 1
 R164: _z[80] + _z[12] <= 1
 R165: _z[80] + _z[97] <= 1
 R166: _z[80] + _z[69] <= 1
 R167: _z[80] + _z[3] <= 1
 R168: _z[80] + _z[66] <= 1
 R169: _z[62] + _z[33] <= 1
 R170: _z[62] + _z[97] <= 1
 R171: _z[62] + _z[69] <= 1
 R172: _z[62] + _z[3] <= 1
 R173: _z[62] + _z[66] <= 1
 R174: _z[20] + _z[97] <= 1
 R175: _z[20] + _z[69] <= 1
 R176: _z[20] + _z[3] <= 1
 R177: _z[20] + _z[66] <= 1
 R178: _z[10] + _z[33] <= 1
 R179: _z[10] + _z[57] <= 1
 R180: _z[10] + _z[97] <= 1
 R181: _z[10] + _z[69] <= 1
 R182: _z[10] + _z[3] <= 1
 R183: _z[10] + _z[66] <= 1
 R184: _z[55] + _z[97] <= 1
 R185: _z[55] + _z[69] <= 1
 R186: _z[55] + _z[3] <= 1
 R187: _z[55] + _z[66] <= 1
 R188: _z[36] + _z[63] <= 1
 R189: _z[36] + _z[37] <= 1
 R190: _z[36] + _z[87] <= 1
 R191: _z[36] + _z[84] <= 1
 R192: _z[36] + _z[39] <= 1
 R193: _z[36] + _z[86] <= 1
 R194: _z[36] + _z[18] <= 1
 R195: _z[36] + _z[94] <= 1
 R196: _z[36] + _z[12] <= 1
 R197: _z[36] + _z[69] <= 1
 R198: _z[36] + _z[3] <= 1
 R199: _z[36] + _z[66] <= 1
 R200: _z[44] + _z[16] <= 1
 R201: _z[44] + _z[30] <= 1
 R202: _z[44] + _z[33] <= 1
 R203: _z[44] + _z[97] <= 1
 R204: _z[44] + _z[3] <= 1
 R205: _z[44] + _z[66] <= 1
 R206: _z[48] + _z[97] <= 1
 R207: _z[48] + _z[3] <= 1
 R208: _z[48] + _z[66] <= 1
 R209: _z[8] + _z[69] <= 1
 R210: _z[8] + _z[3] <= 1
 R211: _z[8] + _z[66] <= 1
 R212: _z[15] + _z[3] <= 1
 R213: _z[15] + _z[66] <= 1
 R214: _z[61] + _z[16] <= 1
 R215: _z[61] + _z[68] <= 1
 R216: _z[61] + _z[30] <= 1
 R217: _z[61] + _z[33] <= 1
 R218: _z[61] + _z[97] <= 1
 R219: _z[61] + _z[3] <= 1
 R220: _z[61] + _z[66] <= 1
 R221: _z[78] + _z[66] <= 1
 R222: _z[34] + _z[66] <= 1
 R223: _z[100] + _z[66] <= 1
 R224: _z[90] + _z[3] <= 1
 R225: _z[90] + _z[66] <= 1
 R226: _z[64] + _z[16] <= 1
 R227: _z[64] + _z[30] <= 1
 R228: _z[64] + _z[97] <= 1
 R229: _z[64] + _z[3] <= 1
 R230: _z[64] + _z[66] <= 1
 R231: _z[79] + _z[63] <= 1
 R232: _z[79] + _z[69] <= 1
 R233: _z[79] + _z[66] <= 1
 R234: _z[1] + _z[3] <= 1
 R235: _z[1] + _z[66] <= 1
 R236: _z[22] + _z[66] <= 1
 R237: _z[31] + _z[66] <= 1
 R238: _z[54] + _z[66] <= 1
 R239: _z[82] + _z[63] <= 1
 R240: _z[82] + _z[37] <= 1
 R241: _z[82] + _z[87] <= 1
 R242: _z[82] + _z[39] <= 1
 R243: _z[82] + _z[86] <= 1
 R244: _z[82] + _z[69] <= 1
 R245: _z[82] + _z[66] <= 1
 R246: _z[11] + _z[66] <= 1
 R247: _z[75] + _z[66] <= 1
 R248: _z[50] + _z[66] <= 1
 R249: _z[19] + _z[63] <= 1
 R250: _z[19] + _z[66] <= 1
 R251: _z[99] + _z[66] <= 1
 R252: _z[49] + _z[63] <= 1
 R253: _z[49] + _z[37] <= 1
 R254: _z[49] + _z[87] <= 1
 R255: _z[49] + _z[39] <= 1
 R256: _z[49] + _z[86] <= 1
 R257: _z[49] + _z[69] <= 1
 R258: _z[49] + _z[66] <= 1
 R259: _z[77] + _z[63] <= 1
 R260: _z[77] + _z[14] <= 1
 R261: _z[77] + _z[37] <= 1
 R262: _z[77] + _z[60] <= 1
 R263: _z[77] + _z[4] <= 1
 R264: _z[77] + _z[87] <= 1
 R265: _z[77] + _z[84] <= 1
 R266: _z[77] + _z[39] <= 1
 R267: _z[77] + _z[52] <= 1
 R268: _z[77] + _z[86] <= 1
 R269: _z[77] + _z[18] <= 1
 R270: _z[77] + _z[94] <= 1
 R271: _z[77] + _z[12] <= 1
 R272: _z[77] + _z[69] <= 1
 R273: _z[77] + _z[66] <= 1
 R274: _z[98] + _z[63] <= 1
 R275: _z[32] + _z[63] <= 1
 R276: _z[70] + _z[63] <= 1
 R277: _z[5] + _z[63] <= 1
 R278: _z[85] + _z[63] <= 1
 R279: _z[71] + _z[63] <= 1
 R280: _z[21] + _z[63] <= 1
 R281: _z[80] + _z[63] <= 1
 R282: _z[36] + _z[63] <= 1
 R283: _z[79] + _z[63] <= 1
 R284: _z[82] + _z[63] <= 1
 R285: _z[19] + _z[63] <= 1
 R286: _z[49] + _z[63] <= 1
 R287: _z[77] + _z[63] <= 1
 R288: _z[98] + _z[63] <= 1
 R289: _z[63] + _z[81] <= 1
 R290: _z[63] + _z[45] <= 1
 R291: _z[63] + _z[76] <= 1
 R292: _z[63] + _z[42] <= 1
 R293: _z[63] + _z[7] <= 1
 R294: _z[63] + _z[16] <= 1
 R295: _z[63] + _z[67] <= 1
 R296: _z[63] + _z[68] <= 1
 R297: _z[63] + _z[30] <= 1
 R298: _z[63] + _z[35] <= 1
 R299: _z[63] + _z[74] <= 1
 R300: _z[63] + _z[24] <= 1
 R301: _z[63] + _z[33] <= 1
 R302: _z[63] + _z[57] <= 1
 R303: _z[63] + _z[97] <= 1
 R304: _z[63] + _z[3] <= 1
 R305: _z[63] + _z[66] <= 1
 R306: _z[71] + _z[14] <= 1
 R307: _z[77] + _z[14] <= 1
 R308: _z[14] + _z[16] <= 1
 R309: _z[14] + _z[68] <= 1
 R310: _z[14] + _z[30] <= 1
 R311: _z[14] + _z[33] <= 1
 R312: _z[14] + _z[97] <= 1
 R313: _z[14] + _z[3] <= 1
 R314: _z[14] + _z[66] <= 1
 R315: _z[93] + _z[16] <= 1
 R316: _z[93] + _z[30] <= 1
 R317: _z[93] + _z[3] <= 1
 R318: _z[93] + _z[66] <= 1
 R319: _z[63] + _z[81] <= 1
 R320: _z[63] + _z[45] <= 1
 R321: _z[45] + _z[37] <= 1
 R322: _z[45] + _z[87] <= 1
 R323: _z[45] + _z[39] <= 1
 R324: _z[45] + _z[86] <= 1
 R325: _z[63] + _z[76] <= 1
 R326: _z[63] + _z[42] <= 1
 R327: _z[63] + _z[7] <= 1
 R328: _z[7] + _z[37] <= 1
 R329: _z[7] + _z[87] <= 1
 R330: _z[7] + _z[39] <= 1
 R331: _z[7] + _z[86] <= 1
 R332: _z[32] + _z[37] <= 1
 R333: _z[5] + _z[37] <= 1
 R334: _z[85] + _z[37] <= 1
 R335: _z[71] + _z[37] <= 1
 R336: _z[21] + _z[37] <= 1
 R337: _z[36] + _z[37] <= 1
 R338: _z[82] + _z[37] <= 1
 R339: _z[49] + _z[37] <= 1
 R340: _z[77] + _z[37] <= 1
 R341: _z[45] + _z[37] <= 1
 R342: _z[7] + _z[37] <= 1
 R343: _z[37] + _z[16] <= 1
 R344: _z[37] + _z[68] <= 1
 R345: _z[37] + _z[30] <= 1
 R346: _z[37] + _z[35] <= 1
 R347: _z[37] + _z[74] <= 1
 R348: _z[37] + _z[33] <= 1
 R349: _z[37] + _z[97] <= 1
 R350: _z[37] + _z[3] <= 1
 R351: _z[37] + _z[66] <= 1
 R352: _z[26] + _z[16] <= 1
 R353: _z[32] + _z[60] <= 1
 R354: _z[71] + _z[60] <= 1
 R355: _z[77] + _z[60] <= 1
 R356: _z[60] + _z[16] <= 1
 R357: _z[60] + _z[30] <= 1
 R358: _z[41] + _z[16] <= 1
 R359: _z[44] + _z[16] <= 1
 R360: _z[61] + _z[16] <= 1
 R361: _z[64] + _z[16] <= 1
 R362: _z[63] + _z[16] <= 1
 R363: _z[14] + _z[16] <= 1
 R364: _z[93] + _z[16] <= 1
 R365: _z[37] + _z[16] <= 1
 R366: _z[26] + _z[16] <= 1
 R367: _z[60] + _z[16] <= 1
 R368: _z[16] + _z[59] <= 1
 R369: _z[16] + _z[4] <= 1
 R370: _z[16] + _z[87] <= 1
 R371: _z[16] + _z[84] <= 1
 R372: _z[16] + _z[39] <= 1
 R373: _z[16] + _z[52] <= 1
 R374: _z[16] + _z[86] <= 1
 R375: _z[16] + _z[18] <= 1
 R376: _z[16] + _z[94] <= 1
 R377: _z[16] + _z[12] <= 1
 R378: _z[16] + _z[69] <= 1
 R379: _z[63] + _z[67] <= 1
 R380: _z[32] + _z[59] <= 1
 R381: _z[71] + _z[59] <= 1
 R382: _z[16] + _z[59] <= 1
 R383: _z[59] + _z[30] <= 1
 R384: _z[32] + _z[4] <= 1
 R385: _z[85] + _z[4] <= 1
 R386: _z[71] + _z[4] <= 1
 R387: _z[77] + _z[4] <= 1
 R388: _z[16] + _z[4] <= 1
 R389: _z[4] + _z[30] <= 1
 R390: _z[61] + _z[68] <= 1
 R391: _z[63] + _z[68] <= 1
 R392: _z[14] + _z[68] <= 1
 R393: _z[37] + _z[68] <= 1
 R394: _z[68] + _z[87] <= 1
 R395: _z[68] + _z[39] <= 1
 R396: _z[68] + _z[86] <= 1
 R397: _z[32] + _z[87] <= 1
 R398: _z[70] + _z[87] <= 1
 R399: _z[5] + _z[87] <= 1
 R400: _z[85] + _z[87] <= 1
 R401: _z[71] + _z[87] <= 1
 R402: _z[21] + _z[87] <= 1
 R403: _z[36] + _z[87] <= 1
 R404: _z[82] + _z[87] <= 1
 R405: _z[49] + _z[87] <= 1
 R406: _z[77] + _z[87] <= 1
 R407: _z[45] + _z[87] <= 1
 R408: _z[7] + _z[87] <= 1
 R409: _z[16] + _z[87] <= 1
 R410: _z[68] + _z[87] <= 1
 R411: _z[87] + _z[30] <= 1
 R412: _z[41] + _z[30] <= 1
 R413: _z[44] + _z[30] <= 1
 R414: _z[61] + _z[30] <= 1
 R415: _z[64] + _z[30] <= 1
 R416: _z[63] + _z[30] <= 1
 R417: _z[14] + _z[30] <= 1
 R418: _z[93] + _z[30] <= 1
 R419: _z[37] + _z[30] <= 1
 R420: _z[60] + _z[30] <= 1
 R421: _z[59] + _z[30] <= 1
 R422: _z[4] + _z[30] <= 1
 R423: _z[87] + _z[30] <= 1
 R424: _z[30] + _z[84] <= 1
 R425: _z[30] + _z[39] <= 1
 R426: _z[30] + _z[52] <= 1
 R427: _z[30] + _z[86] <= 1
 R428: _z[30] + _z[18] <= 1
 R429: _z[30] + _z[69] <= 1
 R430: _z[32] + _z[84] <= 1
 R431: _z[70] + _z[84] <= 1
 R432: _z[5] + _z[84] <= 1
 R433: _z[85] + _z[84] <= 1
 R434: _z[71] + _z[84] <= 1
 R435: _z[36] + _z[84] <= 1
 R436: _z[77] + _z[84] <= 1
 R437: _z[16] + _z[84] <= 1
 R438: _z[30] + _z[84] <= 1
 R439: _z[63] + _z[35] <= 1
 R440: _z[37] + _z[35] <= 1
 R441: _z[32] + _z[39] <= 1
 R442: _z[70] + _z[39] <= 1
 R443: _z[5] + _z[39] <= 1
 R444: _z[85] + _z[39] <= 1
 R445: _z[71] + _z[39] <= 1
 R446: _z[92] + _z[39] <= 1
 R447: _z[21] + _z[39] <= 1
 R448: _z[56] + _z[39] <= 1
 R449: _z[80] + _z[39] <= 1
 R450: _z[36] + _z[39] <= 1
 R451: _z[82] + _z[39] <= 1
 R452: _z[49] + _z[39] <= 1
 R453: _z[77] + _z[39] <= 1
 R454: _z[45] + _z[39] <= 1
 R455: _z[7] + _z[39] <= 1
 R456: _z[16] + _z[39] <= 1
 R457: _z[68] + _z[39] <= 1
 R458: _z[30] + _z[39] <= 1
 R459: _z[32] + _z[51] <= 1
 R460: _z[71] + _z[51] <= 1
 R461: _z[32] + _z[52] <= 1
 R462: _z[70] + _z[52] <= 1
 R463: _z[5] + _z[52] <= 1
 R464: _z[85] + _z[52] <= 1
 R465: _z[71] + _z[52] <= 1
 R466: _z[21] + _z[52] <= 1
 R467: _z[77] + _z[52] <= 1
 R468: _z[16] + _z[52] <= 1
 R469: _z[30] + _z[52] <= 1
 R470: _z[32] + _z[6] <= 1
 R471: _z[32] + _z[96] <= 1
 R472: _z[70] + _z[96] <= 1
 R473: _z[71] + _z[96] <= 1
 R474: _z[32] + _z[74] <= 1
 R475: _z[70] + _z[74] <= 1
 R476: _z[41] + _z[74] <= 1
 R477: _z[63] + _z[74] <= 1
 R478: _z[37] + _z[74] <= 1
 R479: _z[32] + _z[86] <= 1
 R480: _z[70] + _z[86] <= 1
 R481: _z[5] + _z[86] <= 1
 R482: _z[85] + _z[86] <= 1
 R483: _z[71] + _z[86] <= 1
 R484: _z[92] + _z[86] <= 1
 R485: _z[38] + _z[86] <= 1
 R486: _z[21] + _z[86] <= 1
 R487: _z[56] + _z[86] <= 1
 R488: _z[80] + _z[86] <= 1
 R489: _z[36] + _z[86] <= 1
 R490: _z[82] + _z[86] <= 1
 R491: _z[49] + _z[86] <= 1
 R492: _z[77] + _z[86] <= 1
 R493: _z[45] + _z[86] <= 1
 R494: _z[7] + _z[86] <= 1
 R495: _z[16] + _z[86] <= 1
 R496: _z[68] + _z[86] <= 1
 R497: _z[30] + _z[86] <= 1
 R498: _z[32] + _z[29] <= 1
 R499: _z[70] + _z[29] <= 1
 R500: _z[5] + _z[29] <= 1
 R501: _z[85] + _z[29] <= 1
 R502: _z[71] + _z[29] <= 1
 R503: _z[32] + _z[18] <= 1
 R504: _z[70] + _z[18] <= 1
 R505: _z[5] + _z[18] <= 1
 R506: _z[85] + _z[18] <= 1
 R507: _z[71] + _z[18] <= 1
 R508: _z[92] + _z[18] <= 1
 R509: _z[21] + _z[18] <= 1
 R510: _z[56] + _z[18] <= 1
 R511: _z[80] + _z[18] <= 1
 R512: _z[36] + _z[18] <= 1
 R513: _z[77] + _z[18] <= 1
 R514: _z[16] + _z[18] <= 1
 R515: _z[30] + _z[18] <= 1
 R516: _z[32] + _z[24] <= 1
 R517: _z[70] + _z[24] <= 1
 R518: _z[71] + _z[24] <= 1
 R519: _z[63] + _z[24] <= 1
 R520: _z[32] + _z[94] <= 1
 R521: _z[70] + _z[94] <= 1
 R522: _z[5] + _z[94] <= 1
 R523: _z[85] + _z[94] <= 1
 R524: _z[71] + _z[94] <= 1
 R525: _z[92] + _z[94] <= 1
 R526: _z[38] + _z[94] <= 1
 R527: _z[21] + _z[94] <= 1
 R528: _z[56] + _z[94] <= 1
 R529: _z[80] + _z[94] <= 1
 R530: _z[36] + _z[94] <= 1
 R531: _z[77] + _z[94] <= 1
 R532: _z[16] + _z[94] <= 1
 R533: _z[32] + _z[33] <= 1
 R534: _z[70] + _z[33] <= 1
 R535: _z[5] + _z[33] <= 1
 R536: _z[85] + _z[33] <= 1
 R537: _z[71] + _z[33] <= 1
 R538: _z[92] + _z[33] <= 1
 R539: _z[38] + _z[33] <= 1
 R540: _z[21] + _z[33] <= 1
 R541: _z[41] + _z[33] <= 1
 R542: _z[56] + _z[33] <= 1
 R543: _z[62] + _z[33] <= 1
 R544: _z[10] + _z[33] <= 1
 R545: _z[44] + _z[33] <= 1
 R546: _z[61] + _z[33] <= 1
 R547: _z[63] + _z[33] <= 1
 R548: _z[14] + _z[33] <= 1
 R549: _z[37] + _z[33] <= 1
 R550: _z[32] + _z[12] <= 1
 R551: _z[70] + _z[12] <= 1
 R552: _z[5] + _z[12] <= 1
 R553: _z[85] + _z[12] <= 1
 R554: _z[71] + _z[12] <= 1
 R555: _z[92] + _z[12] <= 1
 R556: _z[38] + _z[12] <= 1
 R557: _z[21] + _z[12] <= 1
 R558: _z[41] + _z[12] <= 1
 R559: _z[56] + _z[12] <= 1
 R560: _z[80] + _z[12] <= 1
 R561: _z[36] + _z[12] <= 1
 R562: _z[77] + _z[12] <= 1
 R563: _z[16] + _z[12] <= 1
 R564: _z[32] + _z[57] <= 1
 R565: _z[70] + _z[57] <= 1
 R566: _z[5] + _z[57] <= 1
 R567: _z[85] + _z[57] <= 1
 R568: _z[71] + _z[57] <= 1
 R569: _z[92] + _z[57] <= 1
 R570: _z[38] + _z[57] <= 1
 R571: _z[21] + _z[57] <= 1
 R572: _z[41] + _z[57] <= 1
 R573: _z[56] + _z[57] <= 1
 R574: _z[10] + _z[57] <= 1
 R575: _z[63] + _z[57] <= 1
 R576: _z[32] + _z[97] <= 1
 R577: _z[70] + _z[97] <= 1
 R578: _z[5] + _z[97] <= 1
 R579: _z[85] + _z[97] <= 1
 R580: _z[71] + _z[97] <= 1
 R581: _z[92] + _z[97] <= 1
 R582: _z[38] + _z[97] <= 1
 R583: _z[21] + _z[97] <= 1
 R584: _z[41] + _z[97] <= 1
 R585: _z[56] + _z[97] <= 1
 R586: _z[80] + _z[97] <= 1
 R587: _z[62] + _z[97] <= 1
 R588: _z[20] + _z[97] <= 1
 R589: _z[10] + _z[97] <= 1
 R590: _z[55] + _z[97] <= 1
 R591: _z[44] + _z[97] <= 1
 R592: _z[48] + _z[97] <= 1
 R593: _z[61] + _z[97] <= 1
 R594: _z[64] + _z[97] <= 1
 R595: _z[63] + _z[97] <= 1
 R596: _z[14] + _z[97] <= 1
 R597: _z[37] + _z[97] <= 1
 R598: _z[32] + _z[69] <= 1
 R599: _z[70] + _z[69] <= 1
 R600: _z[5] + _z[69] <= 1
 R601: _z[85] + _z[69] <= 1
 R602: _z[71] + _z[69] <= 1
 R603: _z[92] + _z[69] <= 1
 R604: _z[38] + _z[69] <= 1
 R605: _z[21] + _z[69] <= 1
 R606: _z[41] + _z[69] <= 1
 R607: _z[56] + _z[69] <= 1
 R608: _z[80] + _z[69] <= 1
 R609: _z[62] + _z[69] <= 1
 R610: _z[20] + _z[69] <= 1
 R611: _z[10] + _z[69] <= 1
 R612: _z[55] + _z[69] <= 1
 R613: _z[36] + _z[69] <= 1
 R614: _z[8] + _z[69] <= 1
 R615: _z[79] + _z[69] <= 1
 R616: _z[82] + _z[69] <= 1
 R617: _z[49] + _z[69] <= 1
 R618: _z[77] + _z[69] <= 1
 R619: _z[16] + _z[69] <= 1
 R620: _z[30] + _z[69] <= 1
 R621: _z[32] + _z[3] <= 1
 R622: _z[70] + _z[3] <= 1
 R623: _z[5] + _z[3] <= 1
 R624: _z[85] + _z[3] <= 1
 R625: _z[71] + _z[3] <= 1
 R626: _z[92] + _z[3] <= 1
 R627: _z[38] + _z[3] <= 1
 R628: _z[21] + _z[3] <= 1
 R629: _z[41] + _z[3] <= 1
 R630: _z[56] + _z[3] <= 1
 R631: _z[80] + _z[3] <= 1
 R632: _z[62] + _z[3] <= 1
 R633: _z[20] + _z[3] <= 1
 R634: _z[10] + _z[3] <= 1
 R635: _z[55] + _z[3] <= 1
 R636: _z[36] + _z[3] <= 1
 R637: _z[44] + _z[3] <= 1
 R638: _z[48] + _z[3] <= 1
 R639: _z[8] + _z[3] <= 1
 R640: _z[15] + _z[3] <= 1
 R641: _z[61] + _z[3] <= 1
 R642: _z[90] + _z[3] <= 1
 R643: _z[64] + _z[3] <= 1
 R644: _z[1] + _z[3] <= 1
 R645: _z[63] + _z[3] <= 1
 R646: _z[14] + _z[3] <= 1
 R647: _z[93] + _z[3] <= 1
 R648: _z[37] + _z[3] <= 1
 R649: _z[32] + _z[66] <= 1
 R650: _z[70] + _z[66] <= 1
 R651: _z[5] + _z[66] <= 1
 R652: _z[85] + _z[66] <= 1
 R653: _z[71] + _z[66] <= 1
 R654: _z[92] + _z[66] <= 1
 R655: _z[38] + _z[66] <= 1
 R656: _z[21] + _z[66] <= 1
 R657: _z[41] + _z[66] <= 1
 R658: _z[56] + _z[66] <= 1
 R659: _z[80] + _z[66] <= 1
 R660: _z[62] + _z[66] <= 1
 R661: _z[20] + _z[66] <= 1
 R662: _z[10] + _z[66] <= 1
 R663: _z[55] + _z[66] <= 1
 R664: _z[36] + _z[66] <= 1
 R665: _z[44] + _z[66] <= 1
 R666: _z[48] + _z[66] <= 1
 R667: _z[8] + _z[66] <= 1
 R668: _z[15] + _z[66] <= 1
 R669: _z[61] + _z[66] <= 1
 R670: _z[78] + _z[66] <= 1
 R671: _z[34] + _z[66] <= 1
 R672: _z[100] + _z[66] <= 1
 R673: _z[90] + _z[66] <= 1
 R674: _z[64] + _z[66] <= 1
 R675: _z[79] + _z[66] <= 1
 R676: _z[1] + _z[66] <= 1
 R677: _z[22] + _z[66] <= 1
 R678: _z[31] + _z[66] <= 1
 R679: _z[54] + _z[66] <= 1
 R680: _z[82] + _z[66] <= 1
 R681: _z[11] + _z[66] <= 1
 R682: _z[75] + _z[66] <= 1
 R683: _z[50] + _z[66] <= 1
 R684: _z[19] + _z[66] <= 1
 R685: _z[99] + _z[66] <= 1
 R686: _z[49] + _z[66] <= 1
 R687: _z[77] + _z[66] <= 1
 R688: _z[63] + _z[66] <= 1
 R689: _z[14] + _z[66] <= 1
 R690: _z[93] + _z[66] <= 1
 R691: _z[37] + _z[66] <= 1
 R692: _eta - 803 _z[32] - 258 _z[70] - 135 _z[5] - 363 _z[85] - 43 _z[71]
   - 526 _z[92] - 447 _z[38] - 432 _z[21] - 617 _z[41] - 474 _z[56]
   - 955 _z[80] - 521 _z[62] - 587 _z[20] - 738 _z[10] - 691 _z[55]
   - 275 _z[36] - 50 _z[44] - 443 _z[48] - 657 _z[8] - 706 _z[15]
   - 56 _z[61] - 1005 _z[78] - 1029 _z[34] - 481 _z[100] - 730 _z[90]
   - 535 _z[64] - 636 _z[79] - 702 _z[1] - 466 _z[22] - 614 _z[31]
   - 794 _z[54] - 274 _z[82] - 532 _z[11] - 639 _z[75] - 1145 _z[50]
   - 775 _z[19] - 642 _z[99] - 831 _z[72] - 434 _z[47] - 627 _z[49]
   - 56 _z[77] - 260 _z[95] - 322 _z[98] - 699 _z[53] - 505 _z[65]
   - 126 _z[63] - 579 _z[14] - 546 _z[23] - 532 _z[93] - 364 _z[28]
   - 875 _z[2] - 215 _z[81] - 285 _z[45] - 831 _z[88] - 237 _z[89]
   - 140 _z[25] - 399 _z[91] - 1213 _z[43] - 1468 _z[76] - 1109 _z[42]
   - 387 _z[7] - 648 _z[17] - 462 _z[37] - 789 _z[26] - 1405 _z[9]
   - 413 _z[60] - 327 _z[16] - 495 _z[83] - 1684 _z[13] - 401 _z[67]
   - 801 _z[59] - 533 _z[58] - 636 _z[4] - 307 _z[68] - 129 _z[87]
   - 923 _z[40] - 194 _z[30] - 348 _z[27] - 955 _z[73] - 536 _z[84]
   - 75 _z[35] - 1181 _z[46] - 550 _z[39] - 781 _z[51] - 2189 _z[52]
   - 441 _z[6] - 339 _z[96] - 259 _z[74] - 18 _z[86] - 195 _z[29]
   - 107 _z[18] - 472 _z[24] - 139 _z[94] - 619 _z[33] - 41 _z[12]
   - 860 _z[57] - 36 _z[97] - 73 _z[69] - 17 _z[3] - 10 _z[66] <= 0
Bounds
 _eta free
Binaries
 _z[32] _z[70] _z[5] _z[85] _z[71] _z[92] _z[38] _z[21] _z[41] _z[56]
 _z[80] _z[62] _z[20] _z[10] _z[55] _z[36] _z[44] _z[48] _z[8] _z[15]
 _z[61] _z[78] _z[34] _z[100] _z[90] _z[64] _z[79] _z[1] _z[22] _z[31]
 _z[54] _z[82] _z[11] _z[75] _z[50] _z[19] _z[99] _z[72] _z[47] _z[49]
 _z[77] _z[95] _z[98] _z[53] _z[65] _z[63] _z[14] _z[23] _z[93] _z[28]
 _z[2] _z[81] _z[45] _z[88] _z[89] _z[25] _z[91] _z[43] _z[76] _z[42] _z[7]
 _z[17] _z[37] _z[26] _z[9] _z[60] _z[16] _z[83] _z[13] _z[67] _z[59]
 _z[58] _z[4] _z[68] _z[87] _z[40] _z[30] _z[27] _z[73] _z[84] _z[35]
 _z[46] _z[39] _z[51] _z[52] _z[6] _z[96] _z[74] _z[86] _z[29] _z[18]
 _z[24] _z[94] _z[33] _z[12] _z[57] _z[97] _z[69] _z[3] _z[66]
End
